
     Program PWSCF v.7.5 starts on 20Sep2026 at 17:12:19 

     This program is part of the open-source Quantum ESPRESSO suite
     for quantum simulation of materials; please cite
         "P. Giannozzi et al., J. Phys.:Condens. Matter 21 395502 (2009);
         "P. Giannozzi et al., J. Phys.:Condens. Matter 29 465901 (2017);
         "P. Giannozzi et al., J. Chem. Phys. 152 154105 (2020);
          URL http://www.quantum-espresso.org", 
     in publications or presentations arising from this work. More details at
     http://www.quantum-espresso.org/quote

     Parallel version (MPI & OpenMP), running on       2 processor cores
     Number of MPI processes:                 1
     Threads/MPI process:                     2

     MPI processes distributed on     1 nodes
     129 MiB available memory on the printing compute node when the environment starts

     Reading input from pw.in

     Current dimensions of program PWSCF are:
     Max number of different atomic species (ntypx) = 10
     Max number of k-points (npk) =  40000
     Max angular momentum in pseudopotentials (lmaxx) =  4

     Subspace diagonalization in iterative solution of the eigenvalue problem:
     a serial algorithm will be used


     G-vector sticks info
     --------------------
     sticks:   dense  smooth     PW     G-vecs:    dense   smooth      PW
     Sum        9609    9609   2501               707631   707631   93981

     Using Slab Decomposition



     bravais-lattice index     =            0
     lattice parameter (alat)  =      22.4192  a.u.
     unit-cell volume          =   11268.3829 (a.u.)^3
     number of atoms/cell      =          106
     number of atomic types    =            1
     number of electrons       =       318.00
     number of Kohn-Sham states=          200
     kinetic-energy cutoff     =      60.0000  Ry
     charge density cutoff     =     240.0000  Ry
     scf convergence threshold =      1.0E-09
     mixing beta               =       0.3000
     number of iterations used =            4  plain     mixing
     Exchange-correlation= SLA  PZ   NOGX NOGC
                           (   1   1   0   0   0   0   0)

     celldm(1)=  22.419222  celldm(2)=   0.000000  celldm(3)=   0.000000
     celldm(4)=   0.000000  celldm(5)=   0.000000  celldm(6)=   0.000000

     crystal axes: (cart. coord. in units of alat)
               a(1) = (   1.000000   0.000000   0.000000 )  
               a(2) = (   0.000000   1.000000   0.000000 )  
               a(3) = (   0.000000   0.000000   1.000000 )  

     reciprocal axes: (cart. coord. in units 2 pi/alat)
               b(1) = (  1.000000  0.000000  0.000000 )  
               b(2) = (  0.000000  1.000000  0.000000 )  
               b(3) = (  0.000000  0.000000  1.000000 )  


     PseudoPot. # 1 for Al read from file:
     /var/tmp/al-defects-runtime-20260907/runs/luder_qe_20260917/pseudo/Al.pz-vbc.UPF
     MD5 check sum: f06ceae8da0fe5c02c98e3688433298c
     Pseudo is Norm-conserving, Zval =  3.0
     Generated by new atomic code, or converted to UPF format
     Using radial grid of  171 points,  2 beta functions with: 
                l(1) =   0
                l(2) =   1

     atomic species   valence    mass     pseudopotential
     Al                3.00    26.98154     Al( 1.00)

     No symmetry found


                                    s                        frac. trans.

      isym =  1     identity                                     

 cryst.   s( 1) = (     1          0          0      )
                  (     0          1          0      )
                  (     0          0          1      )

 cart.    s( 1) = (  1.0000000  0.0000000  0.0000000 )
                  (  0.0000000  1.0000000  0.0000000 )
                  (  0.0000000  0.0000000  1.0000000 )


   Cartesian axes

     site n.     atom                  positions (alat units)
         1        Al     tau(   1) = (  -0.0003400  -0.0003400   0.0001424  )
         2        Al     tau(   2) = (  -0.0003232   0.1669898   0.1666667  )
         3        Al     tau(   3) = (   0.1669898  -0.0003232   0.1666667  )
         4        Al     tau(   4) = (   0.1670066   0.1670066   0.0001424  )
         5        Al     tau(   5) = (  -0.0003400  -0.0003400   0.3331910  )
         6        Al     tau(   6) = (  -0.0001505   0.1668172   0.4997887  )
         7        Al     tau(   7) = (   0.1668172  -0.0001505   0.4997887  )
         8        Al     tau(   8) = (   0.1670066   0.1670066   0.3331910  )
         9        Al     tau(   9) = (  -0.0004545  -0.0004545   0.6666667  )
        10        Al     tau(  10) = (  -0.0001505   0.1668172   0.8335447  )
        11        Al     tau(  11) = (   0.1668172  -0.0001505   0.8335447  )
        12        Al     tau(  12) = (   0.1671212   0.1671212   0.6666667  )
        13        Al     tau(  13) = (  -0.0003967   0.3340031  -0.0000596  )
        14        Al     tau(  14) = (  -0.0006950   0.5003875   0.1666667  )
        15        Al     tau(  15) = (   0.1671583   0.3340671   0.1666667  )
        16        Al     tau(  16) = (   0.1676926   0.5003534  -0.0007071  )
        17        Al     tau(  17) = (  -0.0003967   0.3340031   0.3333930  )
        18        Al     tau(  18) = (  -0.0002414   0.5003024   0.4999945  )
        19        Al     tau(  19) = (   0.1672309   0.3338398   0.5001590  )
        20        Al     tau(  20) = (   0.1676926   0.5003534   0.3340405  )
        21        Al     tau(  21) = (  -0.0002260   0.3333503   0.6666667  )
        22        Al     tau(  22) = (  -0.0002414   0.5003024   0.8333388  )
        23        Al     tau(  23) = (   0.1672309   0.3338398   0.8331744  )
        24        Al     tau(  24) = (   0.1657608   0.4996590   0.6666667  )
        25        Al     tau(  25) = (  -0.0010259   0.6663133  -0.0007071  )
        26        Al     tau(  26) = (  -0.0004917   0.8325996   0.1666667  )
        27        Al     tau(  27) = (   0.1673616   0.6662791   0.1666667  )
        28        Al     tau(  28) = (   0.1670634   0.8326636  -0.0000596  )
        29        Al     tau(  29) = (  -0.0010259   0.6663133   0.3340405  )
        30        Al     tau(  30) = (  -0.0005642   0.8328269   0.5001590  )
        31        Al     tau(  31) = (   0.1669081   0.6663643   0.4999945  )
        32        Al     tau(  32) = (   0.1670634   0.8326636   0.3333930  )
        33        Al     tau(  33) = (   0.0009058   0.6670077   0.6666667  )
        34        Al     tau(  34) = (  -0.0005642   0.8328269   0.8331744  )
        35        Al     tau(  35) = (   0.1669081   0.6663643   0.8333388  )
        36        Al     tau(  36) = (   0.1668927   0.8333163   0.6666667  )
        37        Al     tau(  37) = (   0.3340031  -0.0003967  -0.0000596  )
        38        Al     tau(  38) = (   0.3340671   0.1671583   0.1666667  )
        39        Al     tau(  39) = (   0.5003875  -0.0006950   0.1666667  )
        40        Al     tau(  40) = (   0.5003534   0.1676926  -0.0007071  )
        41        Al     tau(  41) = (   0.3340031  -0.0003967   0.3333930  )
        42        Al     tau(  42) = (   0.3338398   0.1672309   0.5001590  )
        43        Al     tau(  43) = (   0.5003024  -0.0002414   0.4999945  )
        44        Al     tau(  44) = (   0.5003534   0.1676926   0.3340405  )
        45        Al     tau(  45) = (   0.3333503  -0.0002260   0.6666667  )
        46        Al     tau(  46) = (   0.3338398   0.1672309   0.8331744  )
        47        Al     tau(  47) = (   0.5003024  -0.0002414   0.8333388  )
        48        Al     tau(  48) = (   0.4996590   0.1657608   0.6666667  )
        49        Al     tau(  49) = (   0.3344134   0.3344134  -0.0009104  )
        50        Al     tau(  50) = (   0.3343459   0.5005611   0.1666667  )
        51        Al     tau(  51) = (   0.5005611   0.3343459   0.1666667  )
        52        Al     tau(  52) = (   0.5009581   0.5009581  -0.0018539  )
        53        Al     tau(  53) = (   0.3344134   0.3344134   0.3342437  )
        54        Al     tau(  54) = (   0.3364394   0.5004828   0.5037219  )
        55        Al     tau(  55) = (   0.5004828   0.3364394   0.5037219  )
        56        Al     tau(  56) = (   0.5009581   0.5009581   0.3351872  )
        57        Al     tau(  57) = (   0.3355434   0.3355434   0.6666667  )
        58        Al     tau(  58) = (   0.3364394   0.5004828   0.8296114  )
        59        Al     tau(  59) = (   0.5004828   0.3364394   0.8296114  )
        60        Al     tau(  60) = (   0.3353135   0.6660162  -0.0023160  )
        61        Al     tau(  61) = (   0.3343402   0.8323265   0.1666667  )
        62        Al     tau(  62) = (   0.5002837   0.6663829   0.1666667  )
        63        Al     tau(  63) = (   0.5006505   0.8313531  -0.0023160  )
        64        Al     tau(  64) = (   0.3353135   0.6660162   0.3356493  )
        65        Al     tau(  65) = (   0.3342428   0.8324239   0.5008110  )
        66        Al     tau(  66) = (   0.5033760   0.6632906   0.5106995  )
        67        Al     tau(  67) = (   0.5006505   0.8313531   0.3356493  )
        68        Al     tau(  68) = (   0.3330077   0.6651550   0.6666667  )
        69        Al     tau(  69) = (   0.3342428   0.8324239   0.8325224  )
        70        Al     tau(  70) = (   0.5033760   0.6632906   0.8226338  )
        71        Al     tau(  71) = (   0.5015117   0.8336589   0.6666667  )
        72        Al     tau(  72) = (   0.6663133  -0.0010259  -0.0007071  )
        73        Al     tau(  73) = (   0.6662791   0.1673616   0.1666667  )
        74        Al     tau(  74) = (   0.8325996  -0.0004917   0.1666667  )
        75        Al     tau(  75) = (   0.8326636   0.1670634  -0.0000596  )
        76        Al     tau(  76) = (   0.6663133  -0.0010259   0.3340405  )
        77        Al     tau(  77) = (   0.6663643   0.1669081   0.4999945  )
        78        Al     tau(  78) = (   0.8328269  -0.0005642   0.5001590  )
        79        Al     tau(  79) = (   0.8326636   0.1670634   0.3333930  )
        80        Al     tau(  80) = (   0.6670077   0.0009058   0.6666667  )
        81        Al     tau(  81) = (   0.6663643   0.1669081   0.8333388  )
        82        Al     tau(  82) = (   0.8328269  -0.0005642   0.8331744  )
        83        Al     tau(  83) = (   0.8333163   0.1668927   0.6666667  )
        84        Al     tau(  84) = (   0.6660162   0.3353135  -0.0023160  )
        85        Al     tau(  85) = (   0.6663829   0.5002837   0.1666667  )
        86        Al     tau(  86) = (   0.8323265   0.3343402   0.1666667  )
        87        Al     tau(  87) = (   0.8313531   0.5006505  -0.0023160  )
        88        Al     tau(  88) = (   0.6660162   0.3353135   0.3356493  )
        89        Al     tau(  89) = (   0.6632906   0.5033760   0.5106995  )
        90        Al     tau(  90) = (   0.8324239   0.3342428   0.5008110  )
        91        Al     tau(  91) = (   0.8313531   0.5006505   0.3356493  )
        92        Al     tau(  92) = (   0.6651550   0.3330077   0.6666667  )
        93        Al     tau(  93) = (   0.6632906   0.5033760   0.8226338  )
        94        Al     tau(  94) = (   0.8324239   0.3342428   0.8325224  )
        95        Al     tau(  95) = (   0.8336589   0.5015117   0.6666667  )
        96        Al     tau(  96) = (   0.6657086   0.6657086  -0.0018539  )
        97        Al     tau(  97) = (   0.6661056   0.8323208   0.1666667  )
        98        Al     tau(  98) = (   0.8323208   0.6661056   0.1666667  )
        99        Al     tau(  99) = (   0.8322533   0.8322533  -0.0009104  )
       100        Al     tau( 100) = (   0.6657086   0.6657086   0.3351872  )
       101        Al     tau( 101) = (   0.6661839   0.8302273   0.5037219  )
       102        Al     tau( 102) = (   0.8302273   0.6661839   0.5037219  )
       103        Al     tau( 103) = (   0.8322533   0.8322533   0.3342437  )
       104        Al     tau( 104) = (   0.6661839   0.8302273   0.8296114  )
       105        Al     tau( 105) = (   0.8302273   0.6661839   0.8296114  )
       106        Al     tau( 106) = (   0.8311232   0.8311232   0.6666667  )

   Crystallographic axes

     site n.     atom                  positions (cryst. coord.)
         1        Al     tau(   1) = ( -0.0003400 -0.0003400  0.0001424  )
         2        Al     tau(   2) = ( -0.0003232  0.1669898  0.1666667  )
         3        Al     tau(   3) = (  0.1669898 -0.0003232  0.1666667  )
         4        Al     tau(   4) = (  0.1670066  0.1670066  0.0001424  )
         5        Al     tau(   5) = ( -0.0003400 -0.0003400  0.3331910  )
         6        Al     tau(   6) = ( -0.0001505  0.1668172  0.4997887  )
         7        Al     tau(   7) = (  0.1668172 -0.0001505  0.4997887  )
         8        Al     tau(   8) = (  0.1670066  0.1670066  0.3331910  )
         9        Al     tau(   9) = ( -0.0004545 -0.0004545  0.6666667  )
        10        Al     tau(  10) = ( -0.0001505  0.1668172  0.8335447  )
        11        Al     tau(  11) = (  0.1668172 -0.0001505  0.8335447  )
        12        Al     tau(  12) = (  0.1671212  0.1671212  0.6666667  )
        13        Al     tau(  13) = ( -0.0003967  0.3340031 -0.0000596  )
        14        Al     tau(  14) = ( -0.0006950  0.5003875  0.1666667  )
        15        Al     tau(  15) = (  0.1671583  0.3340671  0.1666667  )
        16        Al     tau(  16) = (  0.1676926  0.5003534 -0.0007071  )
        17        Al     tau(  17) = ( -0.0003967  0.3340031  0.3333930  )
        18        Al     tau(  18) = ( -0.0002414  0.5003024  0.4999945  )
        19        Al     tau(  19) = (  0.1672309  0.3338398  0.5001590  )
        20        Al     tau(  20) = (  0.1676926  0.5003534  0.3340405  )
        21        Al     tau(  21) = ( -0.0002260  0.3333503  0.6666667  )
        22        Al     tau(  22) = ( -0.0002414  0.5003024  0.8333388  )
        23        Al     tau(  23) = (  0.1672309  0.3338398  0.8331744  )
        24        Al     tau(  24) = (  0.1657608  0.4996590  0.6666667  )
        25        Al     tau(  25) = ( -0.0010259  0.6663133 -0.0007071  )
        26        Al     tau(  26) = ( -0.0004917  0.8325996  0.1666667  )
        27        Al     tau(  27) = (  0.1673616  0.6662791  0.1666667  )
        28        Al     tau(  28) = (  0.1670634  0.8326636 -0.0000596  )
        29        Al     tau(  29) = ( -0.0010259  0.6663133  0.3340405  )
        30        Al     tau(  30) = ( -0.0005642  0.8328269  0.5001590  )
        31        Al     tau(  31) = (  0.1669081  0.6663643  0.4999945  )
        32        Al     tau(  32) = (  0.1670634  0.8326636  0.3333930  )
        33        Al     tau(  33) = (  0.0009058  0.6670077  0.6666667  )
        34        Al     tau(  34) = ( -0.0005642  0.8328269  0.8331744  )
        35        Al     tau(  35) = (  0.1669081  0.6663643  0.8333388  )
        36        Al     tau(  36) = (  0.1668927  0.8333163  0.6666667  )
        37        Al     tau(  37) = (  0.3340031 -0.0003967 -0.0000596  )
        38        Al     tau(  38) = (  0.3340671  0.1671583  0.1666667  )
        39        Al     tau(  39) = (  0.5003875 -0.0006950  0.1666667  )
        40        Al     tau(  40) = (  0.5003534  0.1676926 -0.0007071  )
        41        Al     tau(  41) = (  0.3340031 -0.0003967  0.3333930  )
        42        Al     tau(  42) = (  0.3338398  0.1672309  0.5001590  )
        43        Al     tau(  43) = (  0.5003024 -0.0002414  0.4999945  )
        44        Al     tau(  44) = (  0.5003534  0.1676926  0.3340405  )
        45        Al     tau(  45) = (  0.3333503 -0.0002260  0.6666667  )
        46        Al     tau(  46) = (  0.3338398  0.1672309  0.8331744  )
        47        Al     tau(  47) = (  0.5003024 -0.0002414  0.8333388  )
        48        Al     tau(  48) = (  0.4996590  0.1657608  0.6666667  )
        49        Al     tau(  49) = (  0.3344134  0.3344134 -0.0009104  )
        50        Al     tau(  50) = (  0.3343459  0.5005611  0.1666667  )
        51        Al     tau(  51) = (  0.5005611  0.3343459  0.1666667  )
        52        Al     tau(  52) = (  0.5009581  0.5009581 -0.0018539  )
        53        Al     tau(  53) = (  0.3344134  0.3344134  0.3342437  )
        54        Al     tau(  54) = (  0.3364394  0.5004828  0.5037219  )
        55        Al     tau(  55) = (  0.5004828  0.3364394  0.5037219  )
        56        Al     tau(  56) = (  0.5009581  0.5009581  0.3351872  )
        57        Al     tau(  57) = (  0.3355434  0.3355434  0.6666667  )
        58        Al     tau(  58) = (  0.3364394  0.5004828  0.8296114  )
        59        Al     tau(  59) = (  0.5004828  0.3364394  0.8296114  )
        60        Al     tau(  60) = (  0.3353135  0.6660162 -0.0023160  )
        61        Al     tau(  61) = (  0.3343402  0.8323265  0.1666667  )
        62        Al     tau(  62) = (  0.5002837  0.6663829  0.1666667  )
        63        Al     tau(  63) = (  0.5006505  0.8313531 -0.0023160  )
        64        Al     tau(  64) = (  0.3353135  0.6660162  0.3356493  )
        65        Al     tau(  65) = (  0.3342428  0.8324239  0.5008110  )
        66        Al     tau(  66) = (  0.5033760  0.6632906  0.5106995  )
        67        Al     tau(  67) = (  0.5006505  0.8313531  0.3356493  )
        68        Al     tau(  68) = (  0.3330077  0.6651550  0.6666667  )
        69        Al     tau(  69) = (  0.3342428  0.8324239  0.8325224  )
        70        Al     tau(  70) = (  0.5033760  0.6632906  0.8226338  )
        71        Al     tau(  71) = (  0.5015117  0.8336589  0.6666667  )
        72        Al     tau(  72) = (  0.6663133 -0.0010259 -0.0007071  )
        73        Al     tau(  73) = (  0.6662791  0.1673616  0.1666667  )
        74        Al     tau(  74) = (  0.8325996 -0.0004917  0.1666667  )
        75        Al     tau(  75) = (  0.8326636  0.1670634 -0.0000596  )
        76        Al     tau(  76) = (  0.6663133 -0.0010259  0.3340405  )
        77        Al     tau(  77) = (  0.6663643  0.1669081  0.4999945  )
        78        Al     tau(  78) = (  0.8328269 -0.0005642  0.5001590  )
        79        Al     tau(  79) = (  0.8326636  0.1670634  0.3333930  )
        80        Al     tau(  80) = (  0.6670077  0.0009058  0.6666667  )
        81        Al     tau(  81) = (  0.6663643  0.1669081  0.8333388  )
        82        Al     tau(  82) = (  0.8328269 -0.0005642  0.8331744  )
        83        Al     tau(  83) = (  0.8333163  0.1668927  0.6666667  )
        84        Al     tau(  84) = (  0.6660162  0.3353135 -0.0023160  )
        85        Al     tau(  85) = (  0.6663829  0.5002837  0.1666667  )
        86        Al     tau(  86) = (  0.8323265  0.3343402  0.1666667  )
        87        Al     tau(  87) = (  0.8313531  0.5006505 -0.0023160  )
        88        Al     tau(  88) = (  0.6660162  0.3353135  0.3356493  )
        89        Al     tau(  89) = (  0.6632906  0.5033760  0.5106995  )
        90        Al     tau(  90) = (  0.8324239  0.3342428  0.5008110  )
        91        Al     tau(  91) = (  0.8313531  0.5006505  0.3356493  )
        92        Al     tau(  92) = (  0.6651550  0.3330077  0.6666667  )
        93        Al     tau(  93) = (  0.6632906  0.5033760  0.8226338  )
        94        Al     tau(  94) = (  0.8324239  0.3342428  0.8325224  )
        95        Al     tau(  95) = (  0.8336589  0.5015117  0.6666667  )
        96        Al     tau(  96) = (  0.6657086  0.6657086 -0.0018539  )
        97        Al     tau(  97) = (  0.6661056  0.8323208  0.1666667  )
        98        Al     tau(  98) = (  0.8323208  0.6661056  0.1666667  )
        99        Al     tau(  99) = (  0.8322533  0.8322533 -0.0009104  )
       100        Al     tau( 100) = (  0.6657086  0.6657086  0.3351872  )
       101        Al     tau( 101) = (  0.6661839  0.8302273  0.5037219  )
       102        Al     tau( 102) = (  0.8302273  0.6661839  0.5037219  )
       103        Al     tau( 103) = (  0.8322533  0.8322533  0.3342437  )
       104        Al     tau( 104) = (  0.6661839  0.8302273  0.8296114  )
       105        Al     tau( 105) = (  0.8302273  0.6661839  0.8296114  )
       106        Al     tau( 106) = (  0.8311232  0.8311232  0.6666667  )

     number of k points=    14  Marzari-Vanderbilt smearing, width (Ry)=  0.0200
                       cart. coord. in units 2pi/alat
        k(    1) = (   0.0000000   0.0000000   0.0000000), wk =   0.0740741
        k(    2) = (   0.0000000   0.0000000   0.3333333), wk =   0.1481481
        k(    3) = (   0.0000000   0.3333333   0.0000000), wk =   0.1481481
        k(    4) = (   0.0000000   0.3333333   0.3333333), wk =   0.1481481
        k(    5) = (   0.0000000   0.3333333  -0.3333333), wk =   0.1481481
        k(    6) = (   0.3333333   0.0000000   0.0000000), wk =   0.1481481
        k(    7) = (   0.3333333   0.0000000   0.3333333), wk =   0.1481481
        k(    8) = (   0.3333333   0.0000000  -0.3333333), wk =   0.1481481
        k(    9) = (   0.3333333   0.3333333   0.0000000), wk =   0.1481481
        k(   10) = (   0.3333333   0.3333333   0.3333333), wk =   0.1481481
        k(   11) = (   0.3333333   0.3333333  -0.3333333), wk =   0.1481481
        k(   12) = (   0.3333333  -0.3333333   0.0000000), wk =   0.1481481
        k(   13) = (   0.3333333  -0.3333333   0.3333333), wk =   0.1481481
        k(   14) = (   0.3333333  -0.3333333  -0.3333333), wk =   0.1481481

                       cryst. coord.
        k(    1) = (   0.0000000   0.0000000   0.0000000), wk =   0.0740741
        k(    2) = (   0.0000000   0.0000000   0.3333333), wk =   0.1481481
        k(    3) = (   0.0000000   0.3333333   0.0000000), wk =   0.1481481
        k(    4) = (   0.0000000   0.3333333   0.3333333), wk =   0.1481481
        k(    5) = (   0.0000000   0.3333333  -0.3333333), wk =   0.1481481
        k(    6) = (   0.3333333   0.0000000   0.0000000), wk =   0.1481481
        k(    7) = (   0.3333333   0.0000000   0.3333333), wk =   0.1481481
        k(    8) = (   0.3333333   0.0000000  -0.3333333), wk =   0.1481481
        k(    9) = (   0.3333333   0.3333333   0.0000000), wk =   0.1481481
        k(   10) = (   0.3333333   0.3333333   0.3333333), wk =   0.1481481
        k(   11) = (   0.3333333   0.3333333  -0.3333333), wk =   0.1481481
        k(   12) = (   0.3333333  -0.3333333   0.0000000), wk =   0.1481481
        k(   13) = (   0.3333333  -0.3333333   0.3333333), wk =   0.1481481
        k(   14) = (   0.3333333  -0.3333333  -0.3333333), wk =   0.1481481

     Dense  grid:   707631 G-vectors     FFT dimensions: ( 120, 120, 120)

     Dynamical RAM for                 wfc:     269.89 MB

     Dynamical RAM for     wfc (w. buffer):     269.89 MB

     Dynamical RAM for           str. fact:      10.80 MB

     Dynamical RAM for           local pot:       0.00 MB

     Dynamical RAM for          nlocal pot:     572.17 MB

     Dynamical RAM for                qrad:       0.11 MB

     Dynamical RAM for          rho,v,vnew:      71.94 MB

     Dynamical RAM for               rhoin:      23.98 MB

     Dynamical RAM for            rho*nmix:      86.38 MB

     Dynamical RAM for           G-vectors:      45.89 MB

     Dynamical RAM for          h,s,v(r/c):       7.32 MB

     Dynamical RAM for          <psi|beta>:       1.29 MB

     Dynamical RAM for                 psi:     539.78 MB

     Dynamical RAM for                hpsi:     539.78 MB

     Dynamical RAM for      wfcinit/wfcrot:     540.70 MB

     Estimated static dynamical RAM per process >       1.06 GB

     Estimated max dynamical RAM per process >       2.20 GB

     Atomic positions and unit cell read from directory:
     ./tmp/Al_LDA_strict108_E60_R240_K3_D020_F001_vertical_2V_1NN_D110.save/


     The initial density is read from file :
     ./tmp/Al_LDA_strict108_E60_R240_K3_D020_F001_vertical_2V_1NN_D110.save/charge-density

     Starting wfcs from file
     Calculation restarted from scf iteration #    23

     total cpu time spent up to now is        1.5 secs

     per-process dynamical memory:  1081.9 Mb

     Self-consistent Calculation

     iteration # 23     ecut=    60.00 Ry     beta= 0.30
     Calculation restarted from kpoint #     8
     Davidson diagonalization with overlap

---- Real-time Memory Report at c_bands before calling an iterative solver
           495 MiB given to the printing process from OS
          1091 MiB allocation reported by mallinfo(arena+hblkhd)
           134 MiB available memory on the node where the printing process lives
------------------
     c_bands:  1 eigenvalues not converged
     c_bands:  1 eigenvalues not converged
     c_bands:  1 eigenvalues not converged
     c_bands:  1 eigenvalues not converged
     ethr =  2.99E-12,  avg # of iterations =  8.7

     total cpu time spent up to now is      278.1 secs

     total energy              =    -444.04662686 Ry
     estimated scf accuracy    <       0.00000002 Ry

     iteration # 24     ecut=    60.00 Ry     beta= 0.30
     Davidson diagonalization with overlap

---- Real-time Memory Report at c_bands before calling an iterative solver
          2216 MiB given to the printing process from OS
          1181 MiB allocation reported by mallinfo(arena+hblkhd)
           164 MiB available memory on the node where the printing process lives
------------------
     ethr =  2.99E-12,  avg # of iterations =  2.0

     total cpu time spent up to now is      680.9 secs

     total energy              =    -444.04662686 Ry
     estimated scf accuracy    <          3.3E-09 Ry

     iteration # 25     ecut=    60.00 Ry     beta= 0.30
     Davidson diagonalization with overlap

---- Real-time Memory Report at c_bands before calling an iterative solver
          2235 MiB given to the printing process from OS
          1181 MiB allocation reported by mallinfo(arena+hblkhd)
           187 MiB available memory on the node where the printing process lives
------------------
     ethr =  1.02E-12,  avg # of iterations =  2.1

     total cpu time spent up to now is     1090.4 secs

     total energy              =    -444.04662686 Ry
     estimated scf accuracy    <          4.8E-09 Ry

     iteration # 26     ecut=    60.00 Ry     beta= 0.30
     Davidson diagonalization with overlap

---- Real-time Memory Report at c_bands before calling an iterative solver
          2235 MiB given to the printing process from OS
          1181 MiB allocation reported by mallinfo(arena+hblkhd)
           212 MiB available memory on the node where the printing process lives
------------------
     ethr =  1.02E-12,  avg # of iterations =  2.0

     total cpu time spent up to now is     1442.2 secs

     total energy              =    -444.04662686 Ry
     estimated scf accuracy    <          2.7E-09 Ry

     iteration # 27     ecut=    60.00 Ry     beta= 0.30
     Davidson diagonalization with overlap

---- Real-time Memory Report at c_bands before calling an iterative solver
          2235 MiB given to the printing process from OS
          1181 MiB allocation reported by mallinfo(arena+hblkhd)
           327 MiB available memory on the node where the printing process lives
------------------
     ethr =  8.43E-13,  avg # of iterations =  2.0

     total cpu time spent up to now is     5501.6 secs

     End of self-consistent calculation

          k = 0.0000 0.0000 0.0000 ( 88423 PWs)   bands (ev):

    -3.2998  -2.2944  -2.2928  -2.2789  -2.2697  -2.2298  -2.0749  -1.2501
    -1.2499  -1.2484  -1.2476  -1.2446  -1.2388  -1.2234  -1.2228  -1.1813
    -1.1747  -1.0529  -0.8147  -0.2047  -0.1866  -0.1832  -0.1772  -0.1669
    -0.1532  -0.0689   0.1140   0.8472   0.8473   0.8610   0.8685   0.9300
     0.9778   1.8102   1.8126   1.8174   1.8228   1.8244   1.8244   1.8279
     1.8279   1.8303   1.8345   1.8346   1.8366   1.8444   1.8463   1.8485
     1.8649   1.8649   1.9226   1.9663   1.9712   1.9765   2.0073   2.2378
     2.2854   2.8252   2.8270   2.8273   2.8275   2.8288   2.8290   2.8350
     2.8363   2.8365   2.8372   2.8385   2.8412   2.8413   2.8458   2.8673
     2.8774   2.8850   2.9312   2.9970   3.0481   3.0971   3.1142   3.5436
     3.7120   4.8071   4.8186   4.8235   4.8295   4.8560   4.8585   4.8655
     4.8930   4.9262   4.9339   4.9921   4.9981   5.2856   5.2864   5.2880
     5.8000   5.8001   5.8032   5.8057   5.8071   5.8114   5.8120   5.8148
     5.8197   5.8208   5.8245   5.8275   5.8356   5.8421   5.8505   5.8675
     5.8824   5.9250   5.9304   5.9412   5.9475   6.0292   6.1407   6.1424
     6.1495   6.1692   6.1743   6.1781   6.1977   6.2303   6.2877   6.2944
     6.2957   6.4189   6.4766   6.5631   6.6064   6.7201   6.7376   7.0578
     7.0767   7.0812   7.1219   7.1504   7.1527   7.1641   7.2050   7.2060
     7.3216   7.4273   7.4307   7.5195   7.5199   7.5218   7.5342   7.5660
     7.6116   7.6271   7.6370   7.6424   7.7297   7.8398   7.8584   8.6731
     8.6757   8.6785   8.6798   8.6802   8.6863   8.7003   8.7228   8.7295
     8.7352   8.7393   8.7514   8.7697   8.7866   8.7918   8.7984   8.8098
     8.8380   8.9523   8.9568   8.9972   9.0004   9.0260   9.0571   9.0662
     9.1094   9.1206   9.1247   9.1444   9.2032   9.2645   9.3028   9.8843
     9.8902   9.8928   9.8950   9.8961   9.8975   9.8988   9.9008   9.9045

     occupation numbers 
     1.0000   1.0000   1.0000   1.0000   1.0000   1.0000   1.0000   1.0000
     1.0000   1.0000   1.0000   1.0000   1.0000   1.0000   1.0000   1.0000
     1.0000   1.0000   1.0000   1.0000   1.0000   1.0000   1.0000   1.0000
     1.0000   1.0000   1.0000   1.0000   1.0000   1.0000   1.0000   1.0000
     1.0000   1.0000   1.0000   1.0000   1.0000   1.0000   1.0000   1.0000
     1.0000   1.0000   1.0000   1.0000   1.0000   1.0000   1.0000   1.0000
     1.0000   1.0000   1.0000   1.0000   1.0000   1.0000   1.0000   1.0000
     1.0000   1.0000   1.0000   1.0000   1.0000   1.0000   1.0000   1.0000
     1.0000   1.0000   1.0000   1.0000   1.0000   1.0000   1.0000   1.0000
     1.0000   1.0000   1.0000   1.0000   1.0000   1.0000   1.0000   1.0000
     1.0000   1.0000   1.0000   1.0000   1.0000   1.0000   1.0000   1.0000
     1.0000   1.0000   1.0000   1.0000   1.0000   1.0000   1.0000   1.0000
     1.0000   1.0000   1.0000   1.0000   1.0000   1.0000   1.0000   1.0000
     1.0000   1.0000   1.0000   1.0000   1.0000   1.0000   1.0000   1.0000
     1.0000   1.0000   1.0000   1.0000   1.0000   1.0000   1.0000   1.0000
     1.0000   1.0000   1.0000   1.0000   1.0000   1.0000   1.0000   1.0000
     1.0000   1.0000   1.0000   1.0000   1.0000   1.0000   1.0000   1.0000
     1.0000   1.0000   1.0000   1.0000   1.0000   1.0000   1.0001   1.0001
     1.0008   1.0042   1.0044   1.0138   1.0139   1.0142   1.0163   1.0228
     1.0349   1.0397   1.0429   1.0447   1.0735   1.0743   1.0653   0.0008
     0.0008   0.0007   0.0007   0.0007   0.0006   0.0005   0.0003   0.0003
     0.0002   0.0002   0.0002   0.0001   0.0001   0.0001   0.0001   0.0000
     0.0000   0.0000   0.0000   0.0000   0.0000   0.0000   0.0000   0.0000
     0.0000   0.0000   0.0000   0.0000   0.0000   0.0000   0.0000   0.0000
     0.0000   0.0000   0.0000   0.0000   0.0000   0.0000   0.0000   0.0000

          k = 0.0000 0.0000 0.3333 ( 88467 PWs)   bands (ev):

    -3.1849  -2.8287  -2.1778  -2.1621  -2.1184  -2.0630  -1.8273  -1.8127
    -1.7568  -1.6557  -1.4207  -1.1088  -1.0903  -1.0608  -1.0121  -0.7625
    -0.7405  -0.7004  -0.6632  -0.4409  -0.4244  -0.3779  -0.3575  -0.1344
     0.5860   0.5971   0.6075   0.6316   0.6340   0.6586   0.6870   0.8207
     0.9604   0.9720   1.0401   1.0530   1.2965   1.3155   1.3497   1.3734
     1.6242   1.6421   1.6996   1.7705   1.9381   1.9418   1.9556   1.9860
     2.0304   2.0314   2.0762   2.0763   2.2737   2.2771   2.2900   2.3239
     2.3256   2.4126   2.4222   2.5008   2.5296   2.6474   2.6674   2.8051
     2.8559   3.2645   3.2776   3.3401   3.4400   3.5919   3.5948   3.6041
     3.6157   3.6254   3.6485   3.6892   3.7176   3.7306   3.7375   3.8756
     3.9044   3.9920   4.2668   4.2976   4.4021   4.5063   4.6259   4.6282
     4.6448   4.6678   4.6982   4.7088   4.7701   4.8117   4.8695   4.8797
     4.9531   4.9658   5.0155   5.0235   5.0947   5.1647   5.3110   5.3826
     5.4091   5.4106   5.4232   5.5376   5.7059   5.7269   5.9058   5.9165
     6.0388   6.1984   6.1992   6.2212   6.2781   6.2922   6.2979   6.3299
     6.3532   6.3601   6.5802   6.5860   6.5863   6.6645   6.6901   6.6972
     6.7116   6.7145   6.7477   6.7649   6.9752   6.9793   7.0539   7.1095
     7.1965   7.1999   7.2138   7.2615   7.3274   7.3305   7.3915   7.4301
     7.4652   7.4796   7.5104   7.5798   7.6020   7.6480   7.6485   7.6621
     7.8526   7.8580   7.8762   7.8773   8.0270   8.1051   8.1177   8.1239
     8.1354   8.1476   8.1645   8.1887   8.1895   8.2302   8.3012   8.3246
     8.5347   8.7314   8.7335   8.7367   8.7432   8.7521   8.7611   8.8129
     8.8901   8.9325   8.9411   8.9562   8.9674   9.0210   9.0719   9.1134
     9.1263   9.1737   9.1814   9.1943   9.2262   9.4182   9.4842   9.5023
     9.5069   9.5441   9.5587   9.5894   9.6169   9.8132  10.0171  10.0732

     occupation numbers 
     1.0000   1.0000   1.0000   1.0000   1.0000   1.0000   1.0000   1.0000
     1.0000   1.0000   1.0000   1.0000   1.0000   1.0000   1.0000   1.0000
     1.0000   1.0000   1.0000   1.0000   1.0000   1.0000   1.0000   1.0000
     1.0000   1.0000   1.0000   1.0000   1.0000   1.0000   1.0000   1.0000
     1.0000   1.0000   1.0000   1.0000   1.0000   1.0000   1.0000   1.0000
     1.0000   1.0000   1.0000   1.0000   1.0000   1.0000   1.0000   1.0000
     1.0000   1.0000   1.0000   1.0000   1.0000   1.0000   1.0000   1.0000
     1.0000   1.0000   1.0000   1.0000   1.0000   1.0000   1.0000   1.0000
     1.0000   1.0000   1.0000   1.0000   1.0000   1.0000   1.0000   1.0000
     1.0000   1.0000   1.0000   1.0000   1.0000   1.0000   1.0000   1.0000
     1.0000   1.0000   1.0000   1.0000   1.0000   1.0000   1.0000   1.0000
     1.0000   1.0000   1.0000   1.0000   1.0000   1.0000   1.0000   1.0000
     1.0000   1.0000   1.0000   1.0000   1.0000   1.0000   1.0000   1.0000
     1.0000   1.0000   1.0000   1.0000   1.0000   1.0000   1.0000   1.0000
     1.0000   1.0000   1.0000   1.0000   1.0000   1.0000   1.0000   1.0000
     1.0000   1.0000   1.0000   1.0000   1.0000   1.0000   1.0000   1.0000
     1.0000   1.0000   1.0000   1.0000   1.0000   1.0000   1.0000   1.0000
     1.0001   1.0001   1.0001   1.0003   1.0009   1.0009   1.0025   1.0043
     1.0070   1.0085   1.0124   1.0262   1.0321   1.0466   1.0467   1.0514
     1.0685   1.0655   1.0532   1.0522   0.7999   0.5909   0.5561   0.5390
     0.5075   0.4748   0.4303   0.3696   0.3676   0.2757   0.1517   0.1212
     0.0087   0.0003   0.0003   0.0002   0.0002   0.0002   0.0001   0.0000
     0.0000   0.0000   0.0000   0.0000   0.0000   0.0000   0.0000   0.0000
     0.0000   0.0000   0.0000   0.0000   0.0000   0.0000   0.0000   0.0000
     0.0000   0.0000   0.0000   0.0000   0.0000   0.0000   0.0000   0.0000

          k = 0.0000 0.3333 0.0000 ( 88467 PWs)   bands (ev):

    -3.1849  -2.8273  -2.1765  -2.1535  -2.1407  -2.0554  -1.8263  -1.8020
    -1.7836  -1.6304  -1.4228  -1.1157  -1.0981  -1.0689  -1.0000  -0.7682
    -0.7482  -0.7134  -0.6199  -0.4393  -0.4140  -0.4038  -0.3259  -0.1572
     0.5869   0.6006   0.6117   0.6204   0.6264   0.6451   0.7315   0.7802
     0.9648   0.9800   1.0116   1.0735   1.3071   1.3196   1.3384   1.3846
     1.6191   1.6401   1.6853   1.7924   1.9421   1.9453   1.9473   1.9787
     1.9940   2.0211   2.0703   2.1053   2.2769   2.2804   2.2830   2.3183
     2.3267   2.3472   2.3993   2.5265   2.5885   2.6602   2.6838   2.7875
     2.9379   3.2667   3.2894   3.3096   3.4416   3.5944   3.5968   3.6003
     3.6231   3.6302   3.6425   3.6947   3.7023   3.7101   3.7382   3.8645
     3.9380   3.9918   4.2547   4.2841   4.3690   4.5508   4.6303   4.6330
     4.6344   4.6663   4.6789   4.7025   4.7654   4.8286   4.8712   4.8900
     4.9317   4.9830   4.9884   5.0262   5.0308   5.1870   5.3155   5.3532
     5.3658   5.4188   5.4926   5.5495   5.7278   5.7449   5.9002   5.9120
     6.0071   6.1974   6.2034   6.2173   6.2651   6.2696   6.2977   6.3263
     6.3521   6.3669   6.5739   6.5866   6.6155   6.6184   6.6490   6.6533
     6.7405   6.7726   6.7861   6.8021   6.9909   6.9990   7.0892   7.1110
     7.2007   7.2034   7.2049   7.2443   7.2754   7.3232   7.3874   7.4246
     7.4501   7.4608   7.5852   7.5995   7.6094   7.6207   7.6407   7.6667
     7.8331   7.8477   7.9282   7.9442   8.0388   8.0512   8.1059   8.1211
     8.1293   8.1331   8.1465   8.1673   8.1800   8.2365   8.2397   8.4628
     8.5349   8.7300   8.7325   8.7430   8.7474   8.7484   8.7588   8.7767
     8.8578   8.9141   8.9575   8.9637   8.9820   8.9949   9.0505   9.0832
     9.1474   9.1598   9.1913   9.2004   9.2272   9.3977   9.4538   9.4719
     9.5582   9.5667   9.5901   9.5932   9.6840   9.9009   9.9329  10.0747

     occupation numbers 
     1.0000   1.0000   1.0000   1.0000   1.0000   1.0000   1.0000   1.0000
     1.0000   1.0000   1.0000   1.0000   1.0000   1.0000   1.0000   1.0000
     1.0000   1.0000   1.0000   1.0000   1.0000   1.0000   1.0000   1.0000
     1.0000   1.0000   1.0000   1.0000   1.0000   1.0000   1.0000   1.0000
     1.0000   1.0000   1.0000   1.0000   1.0000   1.0000   1.0000   1.0000
     1.0000   1.0000   1.0000   1.0000   1.0000   1.0000   1.0000   1.0000
     1.0000   1.0000   1.0000   1.0000   1.0000   1.0000   1.0000   1.0000
     1.0000   1.0000   1.0000   1.0000   1.0000   1.0000   1.0000   1.0000
     1.0000   1.0000   1.0000   1.0000   1.0000   1.0000   1.0000   1.0000
     1.0000   1.0000   1.0000   1.0000   1.0000   1.0000   1.0000   1.0000
     1.0000   1.0000   1.0000   1.0000   1.0000   1.0000   1.0000   1.0000
     1.0000   1.0000   1.0000   1.0000   1.0000   1.0000   1.0000   1.0000
     1.0000   1.0000   1.0000   1.0000   1.0000   1.0000   1.0000   1.0000
     1.0000   1.0000   1.0000   1.0000   1.0000   1.0000   1.0000   1.0000
     1.0000   1.0000   1.0000   1.0000   1.0000   1.0000   1.0000   1.0000
     1.0000   1.0000   1.0000   1.0000   1.0000   1.0000   1.0000   1.0000
     1.0000   1.0000   1.0000   1.0000   1.0000   1.0000   1.0000   1.0000
     1.0001   1.0001   1.0001   1.0002   1.0003   1.0008   1.0023   1.0040
     1.0058   1.0067   1.0275   1.0314   1.0343   1.0377   1.0441   1.0530
     1.0768   1.0709   0.9962   0.9720   0.7702   0.7382   0.5887   0.5467
     0.5244   0.5139   0.4777   0.4232   0.3908   0.2627   0.2564   0.0244
     0.0087   0.0003   0.0003   0.0002   0.0002   0.0002   0.0001   0.0001
     0.0000   0.0000   0.0000   0.0000   0.0000   0.0000   0.0000   0.0000
     0.0000   0.0000   0.0000   0.0000   0.0000   0.0000   0.0000   0.0000
     0.0000   0.0000   0.0000   0.0000   0.0000   0.0000   0.0000   0.0000

          k = 0.0000 0.3333 0.3333 ( 88469 PWs)   bands (ev):

    -3.0699  -2.7463  -2.6785  -2.3565  -2.0240  -1.9943  -1.7020  -1.6937
    -1.6393  -1.5878  -1.3475  -1.3308  -1.2892  -1.1992  -0.9631  -0.9007
    -0.3193  -0.3103  -0.2864  -0.2816  -0.2387  -0.1728   0.0262   0.0501
     0.0541   0.0777   0.1325   0.2477   0.4732   0.7290   0.7355   0.7778
     0.8275   1.0485   1.0581   1.0794   1.0918   1.1301   1.2455   1.3872
     1.3988   1.4046   1.4254   1.4397   1.4506   1.5844   1.6256   1.8613
     1.8995   2.4013   2.4147   2.4284   2.4428   2.4587   2.5226   2.5513
     2.7273   2.7392   2.7595   2.7791   2.8702   2.9030   3.0988   3.1176
     3.1578   3.1899   3.4070   3.4209   3.4216   3.4766   3.4886   3.5228
     3.7324   3.7368   3.7466   3.7663   3.7927   3.8227   3.8821   3.9270
     4.0329   4.0420   4.0596   4.0755   4.0918   4.1997   4.2182   4.3045
     4.4227   4.4618   4.5142   4.5772   5.0063   5.0100   5.0366   5.0525
     5.0663   5.0717   5.1083   5.1222   5.2152   5.3028   5.3113   5.3486
     5.4003   5.4254   5.4373   5.4689   5.5073   5.5613   5.6014   5.7287
     5.7541   5.7581   5.8741   6.0651   6.0784   6.1495   6.1607   6.1880
     6.3893   6.4159   6.4276   6.4394   6.4486   6.4871   6.5751   6.6393
     6.6629   6.6779   6.7097   6.7497   6.7623   6.8009   6.8530   6.9333
     6.9891   7.0054   7.1214   7.1398   7.2141   7.3526   7.3584   7.4700
     7.5810   7.5970   7.6747   7.7917   7.8764   7.8822   7.9273   7.9570
     7.9682   7.9893   8.0001   8.0142   8.0328   8.1000   8.1162   8.2191
     8.2451   8.2529   8.2669   8.3033   8.3660   8.3958   8.5159   8.5414
     8.5800   8.5900   8.5998   8.6717   8.6993   8.7683   8.9093   8.9449
     8.9905   9.0008   9.0361   9.0724   9.2124   9.2186   9.2520   9.2842
     9.3056   9.3396   9.3458   9.3637   9.5016   9.5091   9.5708   9.5777
     9.6288   9.6420   9.6570   9.6933   9.7542   9.7894   9.8458   9.9562

     occupation numbers 
     1.0000   1.0000   1.0000   1.0000   1.0000   1.0000   1.0000   1.0000
     1.0000   1.0000   1.0000   1.0000   1.0000   1.0000   1.0000   1.0000
     1.0000   1.0000   1.0000   1.0000   1.0000   1.0000   1.0000   1.0000
     1.0000   1.0000   1.0000   1.0000   1.0000   1.0000   1.0000   1.0000
     1.0000   1.0000   1.0000   1.0000   1.0000   1.0000   1.0000   1.0000
     1.0000   1.0000   1.0000   1.0000   1.0000   1.0000   1.0000   1.0000
     1.0000   1.0000   1.0000   1.0000   1.0000   1.0000   1.0000   1.0000
     1.0000   1.0000   1.0000   1.0000   1.0000   1.0000   1.0000   1.0000
     1.0000   1.0000   1.0000   1.0000   1.0000   1.0000   1.0000   1.0000
     1.0000   1.0000   1.0000   1.0000   1.0000   1.0000   1.0000   1.0000
     1.0000   1.0000   1.0000   1.0000   1.0000   1.0000   1.0000   1.0000
     1.0000   1.0000   1.0000   1.0000   1.0000   1.0000   1.0000   1.0000
     1.0000   1.0000   1.0000   1.0000   1.0000   1.0000   1.0000   1.0000
     1.0000   1.0000   1.0000   1.0000   1.0000   1.0000   1.0000   1.0000
     1.0000   1.0000   1.0000   1.0000   1.0000   1.0000   1.0000   1.0000
     1.0000   1.0000   1.0000   1.0000   1.0000   1.0000   1.0000   1.0000
     1.0000   1.0000   1.0000   1.0000   1.0000   1.0000   1.0000   1.0000
     1.0000   1.0000   1.0000   1.0000   1.0001   1.0013   1.0015   1.0075
     1.0265   1.0307   1.0557   1.0833   1.0530   1.0482   0.9975   0.9503
     0.9298   0.8872   0.8636   0.8311   0.7856   0.6053   0.5603   0.2994
     0.2457   0.2309   0.2057   0.1488   0.0789   0.0564   0.0115   0.0079
     0.0043   0.0036   0.0031   0.0008   0.0005   0.0001   0.0000   0.0000
     0.0000   0.0000   0.0000   0.0000   0.0000   0.0000   0.0000   0.0000
     0.0000   0.0000   0.0000   0.0000   0.0000   0.0000   0.0000   0.0000
     0.0000   0.0000   0.0000   0.0000   0.0000   0.0000   0.0000   0.0000

          k = 0.0000 0.3333-0.3333 ( 88469 PWs)   bands (ev):

    -3.0699  -2.7463  -2.6785  -2.3565  -2.0240  -1.9943  -1.7020  -1.6937
    -1.6393  -1.5878  -1.3475  -1.3308  -1.2892  -1.1992  -0.9631  -0.9007
    -0.3193  -0.3103  -0.2864  -0.2816  -0.2387  -0.1728   0.0262   0.0501
     0.0541   0.0777   0.1325   0.2477   0.4732   0.7290   0.7355   0.7778
     0.8275   1.0485   1.0581   1.0794   1.0918   1.1301   1.2455   1.3872
     1.3988   1.4046   1.4254   1.4397   1.4506   1.5844   1.6256   1.8613
     1.8995   2.4013   2.4147   2.4284   2.4428   2.4587   2.5226   2.5513
     2.7273   2.7392   2.7595   2.7791   2.8702   2.9030   3.0988   3.1176
     3.1578   3.1899   3.4070   3.4209   3.4216   3.4766   3.4886   3.5228
     3.7324   3.7368   3.7466   3.7663   3.7927   3.8227   3.8821   3.9270
     4.0329   4.0420   4.0596   4.0755   4.0918   4.1997   4.2182   4.3045
     4.4227   4.4618   4.5142   4.5772   5.0063   5.0100   5.0366   5.0525
     5.0663   5.0717   5.1083   5.1222   5.2152   5.3028   5.3113   5.3486
     5.4003   5.4254   5.4373   5.4689   5.5073   5.5613   5.6014   5.7287
     5.7541   5.7581   5.8741   6.0651   6.0784   6.1495   6.1607   6.1880
     6.3893   6.4159   6.4276   6.4394   6.4486   6.4871   6.5751   6.6393
     6.6629   6.6779   6.7097   6.7497   6.7623   6.8009   6.8530   6.9333
     6.9891   7.0054   7.1214   7.1398   7.2141   7.3526   7.3584   7.4700
     7.5810   7.5970   7.6747   7.7917   7.8764   7.8822   7.9273   7.9570
     7.9682   7.9893   8.0001   8.0142   8.0328   8.1000   8.1162   8.2191
     8.2451   8.2529   8.2669   8.3033   8.3660   8.3958   8.5159   8.5414
     8.5800   8.5900   8.5998   8.6717   8.6993   8.7683   8.9093   8.9449
     8.9905   9.0008   9.0361   9.0724   9.2124   9.2186   9.2520   9.2842
     9.3056   9.3396   9.3458   9.3637   9.5016   9.5091   9.5708   9.5777
     9.6288   9.6420   9.6570   9.6933   9.7542   9.7894   9.8458   9.9562

     occupation numbers 
     1.0000   1.0000   1.0000   1.0000   1.0000   1.0000   1.0000   1.0000
     1.0000   1.0000   1.0000   1.0000   1.0000   1.0000   1.0000   1.0000
     1.0000   1.0000   1.0000   1.0000   1.0000   1.0000   1.0000   1.0000
     1.0000   1.0000   1.0000   1.0000   1.0000   1.0000   1.0000   1.0000
     1.0000   1.0000   1.0000   1.0000   1.0000   1.0000   1.0000   1.0000
     1.0000   1.0000   1.0000   1.0000   1.0000   1.0000   1.0000   1.0000
     1.0000   1.0000   1.0000   1.0000   1.0000   1.0000   1.0000   1.0000
     1.0000   1.0000   1.0000   1.0000   1.0000   1.0000   1.0000   1.0000
     1.0000   1.0000   1.0000   1.0000   1.0000   1.0000   1.0000   1.0000
     1.0000   1.0000   1.0000   1.0000   1.0000   1.0000   1.0000   1.0000
     1.0000   1.0000   1.0000   1.0000   1.0000   1.0000   1.0000   1.0000
     1.0000   1.0000   1.0000   1.0000   1.0000   1.0000   1.0000   1.0000
     1.0000   1.0000   1.0000   1.0000   1.0000   1.0000   1.0000   1.0000
     1.0000   1.0000   1.0000   1.0000   1.0000   1.0000   1.0000   1.0000
     1.0000   1.0000   1.0000   1.0000   1.0000   1.0000   1.0000   1.0000
     1.0000   1.0000   1.0000   1.0000   1.0000   1.0000   1.0000   1.0000
     1.0000   1.0000   1.0000   1.0000   1.0000   1.0000   1.0000   1.0000
     1.0000   1.0000   1.0000   1.0000   1.0001   1.0013   1.0015   1.0075
     1.0265   1.0307   1.0557   1.0833   1.0530   1.0482   0.9975   0.9503
     0.9298   0.8872   0.8636   0.8311   0.7856   0.6053   0.5603   0.2994
     0.2457   0.2309   0.2057   0.1488   0.0789   0.0564   0.0115   0.0079
     0.0043   0.0036   0.0031   0.0008   0.0005   0.0001   0.0000   0.0000
     0.0000   0.0000   0.0000   0.0000   0.0000   0.0000   0.0000   0.0000
     0.0000   0.0000   0.0000   0.0000   0.0000   0.0000   0.0000   0.0000
     0.0000   0.0000   0.0000   0.0000   0.0000   0.0000   0.0000   0.0000

          k = 0.3333 0.0000 0.0000 ( 88467 PWs)   bands (ev):

    -3.1849  -2.8273  -2.1765  -2.1535  -2.1407  -2.0554  -1.8263  -1.8020
    -1.7836  -1.6304  -1.4228  -1.1157  -1.0981  -1.0689  -1.0000  -0.7682
    -0.7482  -0.7134  -0.6199  -0.4393  -0.4140  -0.4038  -0.3259  -0.1572
     0.5869   0.6006   0.6117   0.6204   0.6264   0.6451   0.7315   0.7802
     0.9648   0.9800   1.0116   1.0735   1.3071   1.3196   1.3384   1.3846
     1.6191   1.6401   1.6853   1.7924   1.9421   1.9453   1.9473   1.9787
     1.9940   2.0211   2.0703   2.1053   2.2769   2.2804   2.2830   2.3183
     2.3267   2.3472   2.3993   2.5265   2.5885   2.6602   2.6838   2.7875
     2.9379   3.2667   3.2894   3.3096   3.4416   3.5944   3.5968   3.6003
     3.6231   3.6302   3.6425   3.6947   3.7023   3.7101   3.7382   3.8645
     3.9380   3.9918   4.2547   4.2841   4.3690   4.5508   4.6303   4.6330
     4.6344   4.6663   4.6789   4.7025   4.7654   4.8286   4.8711   4.8900
     4.9317   4.9830   4.9884   5.0262   5.0308   5.1870   5.3155   5.3532
     5.3658   5.4188   5.4926   5.5495   5.7278   5.7449   5.9002   5.9120
     6.0071   6.1974   6.2034   6.2173   6.2651   6.2696   6.2977   6.3263
     6.3521   6.3669   6.5739   6.5866   6.6155   6.6184   6.6490   6.6533
     6.7405   6.7726   6.7861   6.8021   6.9909   6.9990   7.0892   7.1110
     7.2007   7.2034   7.2049   7.2443   7.2754   7.3232   7.3874   7.4246
     7.4501   7.4608   7.5852   7.5995   7.6094   7.6207   7.6407   7.6667
     7.8331   7.8477   7.9282   7.9442   8.0388   8.0512   8.1059   8.1211
     8.1293   8.1331   8.1465   8.1673   8.1800   8.2365   8.2397   8.4628
     8.5349   8.7300   8.7325   8.7430   8.7474   8.7484   8.7588   8.7767
     8.8578   8.9141   8.9575   8.9637   8.9820   8.9949   9.0505   9.0832
     9.1474   9.1598   9.1913   9.2004   9.2272   9.3977   9.4538   9.4719
     9.5582   9.5667   9.5901   9.5932   9.6840   9.9009   9.9329  10.0747

     occupation numbers 
     1.0000   1.0000   1.0000   1.0000   1.0000   1.0000   1.0000   1.0000
     1.0000   1.0000   1.0000   1.0000   1.0000   1.0000   1.0000   1.0000
     1.0000   1.0000   1.0000   1.0000   1.0000   1.0000   1.0000   1.0000
     1.0000   1.0000   1.0000   1.0000   1.0000   1.0000   1.0000   1.0000
     1.0000   1.0000   1.0000   1.0000   1.0000   1.0000   1.0000   1.0000
     1.0000   1.0000   1.0000   1.0000   1.0000   1.0000   1.0000   1.0000
     1.0000   1.0000   1.0000   1.0000   1.0000   1.0000   1.0000   1.0000
     1.0000   1.0000   1.0000   1.0000   1.0000   1.0000   1.0000   1.0000
     1.0000   1.0000   1.0000   1.0000   1.0000   1.0000   1.0000   1.0000
     1.0000   1.0000   1.0000   1.0000   1.0000   1.0000   1.0000   1.0000
     1.0000   1.0000   1.0000   1.0000   1.0000   1.0000   1.0000   1.0000
     1.0000   1.0000   1.0000   1.0000   1.0000   1.0000   1.0000   1.0000
     1.0000   1.0000   1.0000   1.0000   1.0000   1.0000   1.0000   1.0000
     1.0000   1.0000   1.0000   1.0000   1.0000   1.0000   1.0000   1.0000
     1.0000   1.0000   1.0000   1.0000   1.0000   1.0000   1.0000   1.0000
     1.0000   1.0000   1.0000   1.0000   1.0000   1.0000   1.0000   1.0000
     1.0000   1.0000   1.0000   1.0000   1.0000   1.0000   1.0000   1.0000
     1.0001   1.0001   1.0001   1.0002   1.0003   1.0008   1.0023   1.0040
     1.0058   1.0067   1.0275   1.0314   1.0343   1.0377   1.0441   1.0530
     1.0768   1.0709   0.9962   0.9720   0.7702   0.7382   0.5887   0.5467
     0.5244   0.5139   0.4777   0.4232   0.3908   0.2627   0.2564   0.0244
     0.0087   0.0003   0.0003   0.0002   0.0002   0.0002   0.0001   0.0001
     0.0000   0.0000   0.0000   0.0000   0.0000   0.0000   0.0000   0.0000
     0.0000   0.0000   0.0000   0.0000   0.0000   0.0000   0.0000   0.0000
     0.0000   0.0000   0.0000   0.0000   0.0000   0.0000   0.0000   0.0000

          k = 0.3333 0.0000 0.3333 ( 88469 PWs)   bands (ev):

    -3.0699  -2.7463  -2.6785  -2.3565  -2.0240  -1.9943  -1.7020  -1.6937
    -1.6393  -1.5878  -1.3475  -1.3308  -1.2892  -1.1992  -0.9631  -0.9007
    -0.3193  -0.3103  -0.2864  -0.2816  -0.2387  -0.1728   0.0262   0.0501
     0.0541   0.0777   0.1325   0.2477   0.4732   0.7290   0.7355   0.7778
     0.8275   1.0485   1.0581   1.0794   1.0918   1.1301   1.2455   1.3872
     1.3988   1.4046   1.4254   1.4397   1.4506   1.5844   1.6256   1.8613
     1.8995   2.4013   2.4147   2.4284   2.4428   2.4587   2.5226   2.5513
     2.7273   2.7392   2.7595   2.7791   2.8702   2.9030   3.0988   3.1176
     3.1578   3.1899   3.4070   3.4209   3.4216   3.4766   3.4886   3.5228
     3.7324   3.7368   3.7466   3.7663   3.7927   3.8227   3.8821   3.9270
     4.0329   4.0420   4.0596   4.0755   4.0918   4.1997   4.2182   4.3045
     4.4227   4.4618   4.5142   4.5772   5.0063   5.0100   5.0366   5.0525
     5.0663   5.0717   5.1083   5.1222   5.2152   5.3028   5.3113   5.3486
     5.4003   5.4254   5.4373   5.4689   5.5073   5.5613   5.6014   5.7287
     5.7541   5.7581   5.8741   6.0651   6.0784   6.1495   6.1607   6.1880
     6.3893   6.4159   6.4276   6.4394   6.4486   6.4871   6.5751   6.6393
     6.6629   6.6779   6.7097   6.7497   6.7623   6.8009   6.8530   6.9333
     6.9891   7.0054   7.1214   7.1398   7.2141   7.3526   7.3584   7.4700
     7.5810   7.5970   7.6747   7.7917   7.8764   7.8822   7.9273   7.9570
     7.9682   7.9893   8.0001   8.0142   8.0328   8.1000   8.1162   8.2191
     8.2451   8.2529   8.2669   8.3033   8.3660   8.3958   8.5159   8.5414
     8.5800   8.5900   8.5998   8.6717   8.6993   8.7683   8.9093   8.9449
     8.9905   9.0008   9.0361   9.0724   9.2124   9.2186   9.2520   9.2842
     9.3056   9.3396   9.3458   9.3637   9.5016   9.5091   9.5708   9.5777
     9.6288   9.6420   9.6570   9.6933   9.7542   9.7894   9.8458   9.9562

     occupation numbers 
     1.0000   1.0000   1.0000   1.0000   1.0000   1.0000   1.0000   1.0000
     1.0000   1.0000   1.0000   1.0000   1.0000   1.0000   1.0000   1.0000
     1.0000   1.0000   1.0000   1.0000   1.0000   1.0000   1.0000   1.0000
     1.0000   1.0000   1.0000   1.0000   1.0000   1.0000   1.0000   1.0000
     1.0000   1.0000   1.0000   1.0000   1.0000   1.0000   1.0000   1.0000
     1.0000   1.0000   1.0000   1.0000   1.0000   1.0000   1.0000   1.0000
     1.0000   1.0000   1.0000   1.0000   1.0000   1.0000   1.0000   1.0000
     1.0000   1.0000   1.0000   1.0000   1.0000   1.0000   1.0000   1.0000
     1.0000   1.0000   1.0000   1.0000   1.0000   1.0000   1.0000   1.0000
     1.0000   1.0000   1.0000   1.0000   1.0000   1.0000   1.0000   1.0000
     1.0000   1.0000   1.0000   1.0000   1.0000   1.0000   1.0000   1.0000
     1.0000   1.0000   1.0000   1.0000   1.0000   1.0000   1.0000   1.0000
     1.0000   1.0000   1.0000   1.0000   1.0000   1.0000   1.0000   1.0000
     1.0000   1.0000   1.0000   1.0000   1.0000   1.0000   1.0000   1.0000
     1.0000   1.0000   1.0000   1.0000   1.0000   1.0000   1.0000   1.0000
     1.0000   1.0000   1.0000   1.0000   1.0000   1.0000   1.0000   1.0000
     1.0000   1.0000   1.0000   1.0000   1.0000   1.0000   1.0000   1.0000
     1.0000   1.0000   1.0000   1.0000   1.0001   1.0013   1.0015   1.0075
     1.0265   1.0307   1.0557   1.0833   1.0530   1.0482   0.9975   0.9503
     0.9298   0.8872   0.8636   0.8311   0.7856   0.6053   0.5603   0.2994
     0.2457   0.2309   0.2057   0.1488   0.0789   0.0564   0.0115   0.0079
     0.0043   0.0036   0.0031   0.0008   0.0005   0.0001   0.0000   0.0000
     0.0000   0.0000   0.0000   0.0000   0.0000   0.0000   0.0000   0.0000
     0.0000   0.0000   0.0000   0.0000   0.0000   0.0000   0.0000   0.0000
     0.0000   0.0000   0.0000   0.0000   0.0000   0.0000   0.0000   0.0000

          k = 0.3333 0.0000-0.3333 ( 88469 PWs)   bands (ev):

    -3.0699  -2.7463  -2.6785  -2.3565  -2.0240  -1.9943  -1.7020  -1.6937
    -1.6393  -1.5878  -1.3475  -1.3308  -1.2892  -1.1992  -0.9631  -0.9007
    -0.3193  -0.3103  -0.2864  -0.2816  -0.2387  -0.1728   0.0262   0.0501
     0.0541   0.0777   0.1325   0.2477   0.4732   0.7290   0.7355   0.7778
     0.8275   1.0485   1.0581   1.0794   1.0918   1.1301   1.2455   1.3872
     1.3988   1.4046   1.4254   1.4397   1.4506   1.5844   1.6256   1.8613
     1.8995   2.4013   2.4147   2.4284   2.4428   2.4587   2.5226   2.5513
     2.7273   2.7392   2.7595   2.7791   2.8702   2.9030   3.0988   3.1176
     3.1578   3.1899   3.4070   3.4209   3.4216   3.4766   3.4886   3.5228
     3.7324   3.7368   3.7466   3.7663   3.7927   3.8227   3.8821   3.9270
     4.0329   4.0420   4.0596   4.0755   4.0918   4.1997   4.2182   4.3045
     4.4227   4.4618   4.5142   4.5772   5.0063   5.0100   5.0366   5.0525
     5.0663   5.0717   5.1083   5.1222   5.2152   5.3028   5.3113   5.3486
     5.4003   5.4254   5.4373   5.4689   5.5073   5.5613   5.6014   5.7287
     5.7541   5.7581   5.8741   6.0651   6.0784   6.1495   6.1607   6.1880
     6.3893   6.4159   6.4276   6.4394   6.4486   6.4871   6.5751   6.6393
     6.6629   6.6779   6.7097   6.7497   6.7623   6.8009   6.8530   6.9333
     6.9891   7.0054   7.1214   7.1398   7.2141   7.3526   7.3584   7.4700
     7.5810   7.5970   7.6747   7.7917   7.8764   7.8822   7.9273   7.9570
     7.9682   7.9893   8.0001   8.0142   8.0328   8.1000   8.1162   8.2191
     8.2451   8.2529   8.2669   8.3033   8.3660   8.3958   8.5159   8.5414
     8.5800   8.5900   8.5998   8.6717   8.6993   8.7683   8.9093   8.9449
     8.9905   9.0008   9.0361   9.0724   9.2124   9.2186   9.2520   9.2842
     9.3056   9.3396   9.3458   9.3637   9.5016   9.5091   9.5708   9.5777
     9.6288   9.6420   9.6570   9.6933   9.7542   9.7894   9.8458   9.9562

     occupation numbers 
     1.0000   1.0000   1.0000   1.0000   1.0000   1.0000   1.0000   1.0000
     1.0000   1.0000   1.0000   1.0000   1.0000   1.0000   1.0000   1.0000
     1.0000   1.0000   1.0000   1.0000   1.0000   1.0000   1.0000   1.0000
     1.0000   1.0000   1.0000   1.0000   1.0000   1.0000   1.0000   1.0000
     1.0000   1.0000   1.0000   1.0000   1.0000   1.0000   1.0000   1.0000
     1.0000   1.0000   1.0000   1.0000   1.0000   1.0000   1.0000   1.0000
     1.0000   1.0000   1.0000   1.0000   1.0000   1.0000   1.0000   1.0000
     1.0000   1.0000   1.0000   1.0000   1.0000   1.0000   1.0000   1.0000
     1.0000   1.0000   1.0000   1.0000   1.0000   1.0000   1.0000   1.0000
     1.0000   1.0000   1.0000   1.0000   1.0000   1.0000   1.0000   1.0000
     1.0000   1.0000   1.0000   1.0000   1.0000   1.0000   1.0000   1.0000
     1.0000   1.0000   1.0000   1.0000   1.0000   1.0000   1.0000   1.0000
     1.0000   1.0000   1.0000   1.0000   1.0000   1.0000   1.0000   1.0000
     1.0000   1.0000   1.0000   1.0000   1.0000   1.0000   1.0000   1.0000
     1.0000   1.0000   1.0000   1.0000   1.0000   1.0000   1.0000   1.0000
     1.0000   1.0000   1.0000   1.0000   1.0000   1.0000   1.0000   1.0000
     1.0000   1.0000   1.0000   1.0000   1.0000   1.0000   1.0000   1.0000
     1.0000   1.0000   1.0000   1.0000   1.0001   1.0013   1.0015   1.0075
     1.0265   1.0307   1.0557   1.0833   1.0530   1.0482   0.9975   0.9503
     0.9298   0.8872   0.8636   0.8311   0.7856   0.6053   0.5603   0.2994
     0.2457   0.2309   0.2057   0.1488   0.0789   0.0564   0.0115   0.0079
     0.0043   0.0036   0.0031   0.0008   0.0005   0.0001   0.0000   0.0000
     0.0000   0.0000   0.0000   0.0000   0.0000   0.0000   0.0000   0.0000
     0.0000   0.0000   0.0000   0.0000   0.0000   0.0000   0.0000   0.0000
     0.0000   0.0000   0.0000   0.0000   0.0000   0.0000   0.0000   0.0000

          k = 0.3333 0.3333 0.0000 ( 88469 PWs)   bands (ev):

    -3.0688  -2.7557  -2.6697  -2.3513  -2.0374  -1.9884  -1.7083  -1.6999
    -1.6632  -1.5467  -1.3556  -1.3343  -1.2607  -1.2232  -0.9733  -0.8776
    -0.3234  -0.3141  -0.2856  -0.2795  -0.2438  -0.1678   0.0261   0.0417
     0.0455   0.0775   0.1402   0.2784   0.4779   0.7186   0.7276   0.7542
     0.8332   1.0433   1.0541   1.0826   1.0927   1.1205   1.2839   1.3804
     1.3859   1.3863   1.4051   1.4594   1.4916   1.5121   1.6348   1.7953
     1.9953   2.4103   2.4156   2.4172   2.4575   2.4608   2.5059   2.6538
     2.7210   2.7232   2.7257   2.7880   2.8131   2.9115   3.0689   3.1262
     3.1784   3.3027   3.3866   3.4025   3.4231   3.4256   3.4762   3.5423
     3.7279   3.7296   3.7425   3.7752   3.8043   3.8279   3.8587   4.0154
     4.0267   4.0296   4.0401   4.0766   4.0938   4.1764   4.1956   4.2872
     4.3812   4.4705   4.5078   4.6219   4.9933   5.0052   5.0485   5.0601
     5.0920   5.1028   5.1035   5.1140   5.1149   5.3079   5.3135   5.3659
     5.3962   5.4296   5.4312   5.4454   5.5036   5.5508   5.5678   5.7403
     5.7586   5.8204   5.8930   6.0338   6.0506   6.1899   6.2168   6.2175
     6.3510   6.4151   6.4264   6.4310   6.4337   6.5009   6.5653   6.6415
     6.6477   6.7020   6.7165   6.7232   6.7871   6.7959   6.8407   6.8597
     6.9843   7.0377   7.1323   7.1329   7.2357   7.3359   7.4287   7.5726
     7.5745   7.5932   7.6222   7.8325   7.8647   7.8711   7.9092   7.9383
     7.9505   7.9734   7.9797   8.0308   8.0460   8.0883   8.0983   8.2025
     8.2195   8.2402   8.2473   8.3047   8.3100   8.4994   8.5219   8.5444
     8.5635   8.6096   8.6274   8.6590   8.6993   8.7622   8.8814   8.9252
     8.9768   8.9900   9.0359   9.1592   9.1902   9.2193   9.2528   9.2628
     9.3009   9.3338   9.3523   9.3816   9.4856   9.4881   9.5635   9.5673
     9.6129   9.6558   9.6835   9.7353   9.7638   9.8455   9.8465  10.0056

     occupation numbers 
     1.0000   1.0000   1.0000   1.0000   1.0000   1.0000   1.0000   1.0000
     1.0000   1.0000   1.0000   1.0000   1.0000   1.0000   1.0000   1.0000
     1.0000   1.0000   1.0000   1.0000   1.0000   1.0000   1.0000   1.0000
     1.0000   1.0000   1.0000   1.0000   1.0000   1.0000   1.0000   1.0000
     1.0000   1.0000   1.0000   1.0000   1.0000   1.0000   1.0000   1.0000
     1.0000   1.0000   1.0000   1.0000   1.0000   1.0000   1.0000   1.0000
     1.0000   1.0000   1.0000   1.0000   1.0000   1.0000   1.0000   1.0000
     1.0000   1.0000   1.0000   1.0000   1.0000   1.0000   1.0000   1.0000
     1.0000   1.0000   1.0000   1.0000   1.0000   1.0000   1.0000   1.0000
     1.0000   1.0000   1.0000   1.0000   1.0000   1.0000   1.0000   1.0000
     1.0000   1.0000   1.0000   1.0000   1.0000   1.0000   1.0000   1.0000
     1.0000   1.0000   1.0000   1.0000   1.0000   1.0000   1.0000   1.0000
     1.0000   1.0000   1.0000   1.0000   1.0000   1.0000   1.0000   1.0000
     1.0000   1.0000   1.0000   1.0000   1.0000   1.0000   1.0000   1.0000
     1.0000   1.0000   1.0000   1.0000   1.0000   1.0000   1.0000   1.0000
     1.0000   1.0000   1.0000   1.0000   1.0000   1.0000   1.0000   1.0000
     1.0000   1.0000   1.0000   1.0000   1.0000   1.0000   1.0000   1.0000
     1.0000   1.0000   1.0000   1.0000   1.0002   1.0010   1.0043   1.0244
     1.0248   1.0297   1.0382   1.0770   1.0614   1.0570   1.0208   0.9812
     0.9616   0.9198   0.9071   0.7905   0.7518   0.6375   0.6097   0.3368
     0.2984   0.2553   0.2415   0.1469   0.1397   0.0147   0.0106   0.0075
     0.0055   0.0026   0.0019   0.0011   0.0005   0.0001   0.0000   0.0000
     0.0000   0.0000   0.0000   0.0000   0.0000   0.0000   0.0000   0.0000
     0.0000   0.0000   0.0000   0.0000   0.0000   0.0000   0.0000   0.0000
     0.0000   0.0000   0.0000   0.0000   0.0000   0.0000   0.0000   0.0000

          k = 0.3333 0.3333 0.3333 ( 88430 PWs)   bands (ev):

    -2.9538  -2.6383  -2.6264  -2.5317  -2.2868  -2.2733  -2.1266  -1.8445
    -1.2404  -1.2301  -1.1430  -0.9024  -0.8960  -0.8953  -0.8487  -0.8132
    -0.6898  -0.5105  -0.5037  -0.4028  -0.1705  -0.1524  -0.0882   0.1297
     0.1358   0.1373   0.1882   0.2361   0.3463   0.4740   0.4862   0.4891
     0.5134   0.6285   0.7803   0.8551   0.8980   1.0109   1.4952   1.5045
     1.5095   1.5854   1.6121   1.6491   1.8331   1.8442   1.8522   1.9436
     1.9860   2.1583   2.2182   2.5160   2.5320   2.5527   2.5630   2.6007
     2.6382   2.8255   2.8372   2.8375   2.8412   2.8652   2.9169   2.9388
     2.9952   3.0783   3.1670   3.1942   3.2121   3.2823   3.4072   3.5215
     4.1376   4.1412   4.1442   4.1513   4.1514   4.1715   4.1994   4.2226
     4.2415   4.2425   4.2910   4.3400   4.4378   4.4461   4.4477   4.4615
     4.4662   4.4880   4.5325   4.5756   4.6090   4.6322   4.6657   4.8205
     4.8258   4.8794   4.9930   5.1305   5.1509   5.1711   5.2159   5.2210
     5.2688   5.2994   5.4988   5.5069   5.5233   5.6038   5.6370   5.6711
     5.7188   5.7386   5.7548   5.8006   5.8497   5.8813   5.8861   5.9322
     6.1166   6.1229   6.1552   6.1680   6.2571   6.3709   6.4545   6.7217
     6.7368   6.7389   6.7685   6.7966   6.8224   6.8248   6.8526   6.9020
     6.9441   6.9467   7.0260   7.0335   7.0492   7.0524   7.1357   7.2350
     7.4445   7.4958   7.4966   7.6302   7.7286   7.7333   7.7716   7.8474
     7.8603   7.8802   8.0968   8.1046   8.1440   8.3151   8.3311   8.3348
     8.3502   8.3561   8.3787   8.4905   8.5013   8.5516   8.5762   8.5863
     8.6159   8.6511   8.6688   8.7136   9.1230   9.1286   9.1522   9.2805
     9.3000   9.3210   9.3444   9.3979   9.4158   9.4188   9.4580   9.4746
     9.4842   9.5285   9.5560   9.5867   9.6256   9.6393   9.7093   9.7349
     9.7823   9.8429   9.8718   9.8750   9.9435   9.9655  10.0127  10.2611

     occupation numbers 
     1.0000   1.0000   1.0000   1.0000   1.0000   1.0000   1.0000   1.0000
     1.0000   1.0000   1.0000   1.0000   1.0000   1.0000   1.0000   1.0000
     1.0000   1.0000   1.0000   1.0000   1.0000   1.0000   1.0000   1.0000
     1.0000   1.0000   1.0000   1.0000   1.0000   1.0000   1.0000   1.0000
     1.0000   1.0000   1.0000   1.0000   1.0000   1.0000   1.0000   1.0000
     1.0000   1.0000   1.0000   1.0000   1.0000   1.0000   1.0000   1.0000
     1.0000   1.0000   1.0000   1.0000   1.0000   1.0000   1.0000   1.0000
     1.0000   1.0000   1.0000   1.0000   1.0000   1.0000   1.0000   1.0000
     1.0000   1.0000   1.0000   1.0000   1.0000   1.0000   1.0000   1.0000
     1.0000   1.0000   1.0000   1.0000   1.0000   1.0000   1.0000   1.0000
     1.0000   1.0000   1.0000   1.0000   1.0000   1.0000   1.0000   1.0000
     1.0000   1.0000   1.0000   1.0000   1.0000   1.0000   1.0000   1.0000
     1.0000   1.0000   1.0000   1.0000   1.0000   1.0000   1.0000   1.0000
     1.0000   1.0000   1.0000   1.0000   1.0000   1.0000   1.0000   1.0000
     1.0000   1.0000   1.0000   1.0000   1.0000   1.0000   1.0000   1.0000
     1.0000   1.0000   1.0000   1.0000   1.0000   1.0000   1.0000   1.0000
     1.0000   1.0000   1.0000   1.0000   1.0000   1.0000   1.0000   1.0000
     1.0000   1.0000   1.0000   1.0000   1.0000   1.0000   1.0000   1.0002
     1.0053   1.0104   1.0105   1.0407   1.0732   1.0745   1.0821   1.0711
     1.0642   1.0499   0.6139   0.5924   0.4843   0.1330   0.1137   0.1095
     0.0935   0.0878   0.0685   0.0167   0.0143   0.0067   0.0045   0.0038
     0.0023   0.0012   0.0009   0.0004   0.0000   0.0000   0.0000   0.0000
     0.0000   0.0000   0.0000   0.0000   0.0000   0.0000   0.0000   0.0000
     0.0000   0.0000   0.0000   0.0000   0.0000   0.0000   0.0000   0.0000
     0.0000   0.0000   0.0000   0.0000   0.0000   0.0000   0.0000   0.0000

          k = 0.3333 0.3333-0.3333 ( 88430 PWs)   bands (ev):

    -2.9538  -2.6383  -2.6264  -2.5317  -2.2868  -2.2733  -2.1266  -1.8445
    -1.2404  -1.2301  -1.1430  -0.9024  -0.8960  -0.8953  -0.8487  -0.8132
    -0.6898  -0.5105  -0.5037  -0.4028  -0.1705  -0.1524  -0.0882   0.1297
     0.1358   0.1373   0.1882   0.2361   0.3463   0.4740   0.4862   0.4891
     0.5134   0.6285   0.7803   0.8551   0.8980   1.0109   1.4952   1.5045
     1.5095   1.5854   1.6121   1.6491   1.8331   1.8442   1.8522   1.9436
     1.9860   2.1583   2.2182   2.5160   2.5320   2.5527   2.5630   2.6007
     2.6382   2.8255   2.8372   2.8375   2.8412   2.8652   2.9169   2.9388
     2.9952   3.0783   3.1670   3.1942   3.2121   3.2823   3.4072   3.5215
     4.1376   4.1412   4.1442   4.1513   4.1514   4.1715   4.1994   4.2226
     4.2415   4.2425   4.2910   4.3400   4.4378   4.4461   4.4477   4.4615
     4.4662   4.4880   4.5325   4.5756   4.6090   4.6322   4.6657   4.8205
     4.8258   4.8794   4.9930   5.1305   5.1509   5.1711   5.2159   5.2210
     5.2688   5.2994   5.4988   5.5069   5.5233   5.6038   5.6370   5.6711
     5.7188   5.7386   5.7548   5.8006   5.8497   5.8813   5.8861   5.9322
     6.1166   6.1229   6.1552   6.1680   6.2571   6.3709   6.4545   6.7217
     6.7368   6.7389   6.7685   6.7966   6.8224   6.8248   6.8526   6.9020
     6.9441   6.9467   7.0260   7.0335   7.0492   7.0524   7.1357   7.2350
     7.4445   7.4958   7.4966   7.6302   7.7286   7.7333   7.7716   7.8474
     7.8603   7.8802   8.0968   8.1046   8.1440   8.3151   8.3311   8.3348
     8.3502   8.3561   8.3787   8.4905   8.5013   8.5516   8.5762   8.5863
     8.6159   8.6511   8.6688   8.7136   9.1230   9.1286   9.1522   9.2805
     9.3000   9.3210   9.3444   9.3979   9.4158   9.4188   9.4580   9.4746
     9.4842   9.5285   9.5560   9.5867   9.6256   9.6393   9.7093   9.7349
     9.7823   9.8429   9.8718   9.8750   9.9435   9.9655  10.0127  10.2613

     occupation numbers 
     1.0000   1.0000   1.0000   1.0000   1.0000   1.0000   1.0000   1.0000
     1.0000   1.0000   1.0000   1.0000   1.0000   1.0000   1.0000   1.0000
     1.0000   1.0000   1.0000   1.0000   1.0000   1.0000   1.0000   1.0000
     1.0000   1.0000   1.0000   1.0000   1.0000   1.0000   1.0000   1.0000
     1.0000   1.0000   1.0000   1.0000   1.0000   1.0000   1.0000   1.0000
     1.0000   1.0000   1.0000   1.0000   1.0000   1.0000   1.0000   1.0000
     1.0000   1.0000   1.0000   1.0000   1.0000   1.0000   1.0000   1.0000
     1.0000   1.0000   1.0000   1.0000   1.0000   1.0000   1.0000   1.0000
     1.0000   1.0000   1.0000   1.0000   1.0000   1.0000   1.0000   1.0000
     1.0000   1.0000   1.0000   1.0000   1.0000   1.0000   1.0000   1.0000
     1.0000   1.0000   1.0000   1.0000   1.0000   1.0000   1.0000   1.0000
     1.0000   1.0000   1.0000   1.0000   1.0000   1.0000   1.0000   1.0000
     1.0000   1.0000   1.0000   1.0000   1.0000   1.0000   1.0000   1.0000
     1.0000   1.0000   1.0000   1.0000   1.0000   1.0000   1.0000   1.0000
     1.0000   1.0000   1.0000   1.0000   1.0000   1.0000   1.0000   1.0000
     1.0000   1.0000   1.0000   1.0000   1.0000   1.0000   1.0000   1.0000
     1.0000   1.0000   1.0000   1.0000   1.0000   1.0000   1.0000   1.0000
     1.0000   1.0000   1.0000   1.0000   1.0000   1.0000   1.0000   1.0002
     1.0053   1.0104   1.0105   1.0407   1.0732   1.0745   1.0821   1.0711
     1.0642   1.0499   0.6139   0.5924   0.4843   0.1330   0.1137   0.1095
     0.0935   0.0878   0.0685   0.0167   0.0143   0.0067   0.0045   0.0038
     0.0023   0.0012   0.0009   0.0004   0.0000   0.0000   0.0000   0.0000
     0.0000   0.0000   0.0000   0.0000   0.0000   0.0000   0.0000   0.0000
     0.0000   0.0000   0.0000   0.0000   0.0000   0.0000   0.0000   0.0000
     0.0000   0.0000   0.0000   0.0000   0.0000   0.0000   0.0000   0.0000

          k = 0.3333-0.3333 0.0000 ( 88469 PWs)   bands (ev):

    -3.0711  -2.7295  -2.6924  -2.3582  -2.0377  -1.9824  -1.7004  -1.6713
    -1.6653  -1.5994  -1.3340  -1.3294  -1.3269  -1.1374  -0.9409  -0.9375
    -0.3160  -0.3032  -0.2946  -0.2867  -0.2425  -0.1672   0.0362   0.0418
     0.0455   0.0610   0.1940   0.2051   0.4637   0.7239   0.7251   0.7778
     0.8408   1.0506   1.0556   1.0775   1.1030   1.1276   1.2150   1.3892
     1.3917   1.4104   1.4320   1.4480   1.4790   1.5545   1.6220   1.7995
     2.0215   2.4089   2.4123   2.4216   2.4228   2.4770   2.5078   2.5154
     2.7279   2.7443   2.7925   2.8095   2.8351   2.9114   3.0932   3.1234
     3.1522   3.1573   3.3954   3.4067   3.4124   3.4887   3.5266   3.5330
     3.7166   3.7232   3.7514   3.7539   3.7558   3.8215   3.8682   3.9455
     4.0266   4.0769   4.0845   4.1082   4.1358   4.1799   4.2288   4.2524
     4.4453   4.4675   4.4708   4.6342   4.9914   5.0024   5.0182   5.0423
     5.0673   5.0932   5.0946   5.1203   5.1766   5.2949   5.3065   5.3650
     5.4314   5.4325   5.4342   5.4510   5.4869   5.5714   5.6220   5.7440
     5.7800   5.7858   5.8502   6.0390   6.0418   6.1518   6.1584   6.1777
     6.3771   6.4126   6.4134   6.4591   6.4634   6.4865   6.6085   6.6314
     6.6361   6.6646   6.7217   6.7294   6.7388   6.7567   6.8577   6.9652
     6.9996   7.0193   7.1162   7.1911   7.2005   7.3342   7.3963   7.4096
     7.5774   7.6086   7.6467   7.8596   7.8672   7.8777   7.9267   7.9647
     7.9725   7.9791   7.9821   8.0161   8.0560   8.0734   8.1612   8.2047
     8.2114   8.2228   8.2773   8.3877   8.4074   8.4521   8.4691   8.5441
     8.5488   8.5712   8.6022   8.6380   8.7585   8.8310   8.9449   8.9564
     8.9808   9.0002   9.0348   9.0503   9.2189   9.2290   9.2431   9.2752
     9.2968   9.2984   9.3599   9.3637   9.4855   9.4954   9.5367   9.5373
     9.5840   9.6007   9.6744   9.6978   9.7993   9.8387   9.8816   9.9367

     occupation numbers 
     1.0000   1.0000   1.0000   1.0000   1.0000   1.0000   1.0000   1.0000
     1.0000   1.0000   1.0000   1.0000   1.0000   1.0000   1.0000   1.0000
     1.0000   1.0000   1.0000   1.0000   1.0000   1.0000   1.0000   1.0000
     1.0000   1.0000   1.0000   1.0000   1.0000   1.0000   1.0000   1.0000
     1.0000   1.0000   1.0000   1.0000   1.0000   1.0000   1.0000   1.0000
     1.0000   1.0000   1.0000   1.0000   1.0000   1.0000   1.0000   1.0000
     1.0000   1.0000   1.0000   1.0000   1.0000   1.0000   1.0000   1.0000
     1.0000   1.0000   1.0000   1.0000   1.0000   1.0000   1.0000   1.0000
     1.0000   1.0000   1.0000   1.0000   1.0000   1.0000   1.0000   1.0000
     1.0000   1.0000   1.0000   1.0000   1.0000   1.0000   1.0000   1.0000
     1.0000   1.0000   1.0000   1.0000   1.0000   1.0000   1.0000   1.0000
     1.0000   1.0000   1.0000   1.0000   1.0000   1.0000   1.0000   1.0000
     1.0000   1.0000   1.0000   1.0000   1.0000   1.0000   1.0000   1.0000
     1.0000   1.0000   1.0000   1.0000   1.0000   1.0000   1.0000   1.0000
     1.0000   1.0000   1.0000   1.0000   1.0000   1.0000   1.0000   1.0000
     1.0000   1.0000   1.0000   1.0000   1.0000   1.0000   1.0000   1.0000
     1.0000   1.0000   1.0000   1.0000   1.0000   1.0000   1.0000   1.0000
     1.0000   1.0000   1.0000   1.0001   1.0001   1.0010   1.0026   1.0032
     1.0256   1.0340   1.0461   1.0646   1.0597   1.0519   0.9984   0.9364
     0.9214   0.9084   0.9022   0.8265   0.7253   0.6785   0.4390   0.3318
     0.3164   0.2915   0.1881   0.0619   0.0491   0.0281   0.0224   0.0075
     0.0070   0.0049   0.0029   0.0016   0.0001   0.0000   0.0000   0.0000
     0.0000   0.0000   0.0000   0.0000   0.0000   0.0000   0.0000   0.0000
     0.0000   0.0000   0.0000   0.0000   0.0000   0.0000   0.0000   0.0000
     0.0000   0.0000   0.0000   0.0000   0.0000   0.0000   0.0000   0.0000

          k = 0.3333-0.3333 0.3333 ( 88430 PWs)   bands (ev):

    -2.9561  -2.6345  -2.6132  -2.5466  -2.2831  -2.2605  -2.1502  -1.8457
    -1.2363  -1.2211  -1.1389  -0.9018  -0.8877  -0.8839  -0.8564  -0.7869
    -0.7232  -0.5158  -0.4758  -0.4433  -0.1733  -0.1358  -0.1339   0.1307
     0.1460   0.1504   0.1823   0.2815   0.2855   0.4687   0.4906   0.5039
     0.5565   0.5883   0.7580   0.8547   0.9131   1.0587   1.5025   1.5100
     1.5206   1.5743   1.6277   1.6461   1.8399   1.8607   1.8736   1.9117
     1.9947   2.0250   2.2418   2.5022   2.5434   2.5487   2.5613   2.6086
     2.6234   2.8352   2.8387   2.8473   2.8578   2.8805   2.9064   2.9463
     2.9956   3.0883   3.1723   3.2071   3.2530   3.2945   3.3857   3.4224
     4.1394   4.1466   4.1473   4.1558   4.1631   4.1669   4.2009   4.2325
     4.2455   4.2651   4.2887   4.3545   4.4338   4.4451   4.4487   4.4728
     4.4791   4.5125   4.5267   4.5445   4.5901   4.6202   4.7229   4.7485
     4.8247   4.9278   4.9488   5.1497   5.1587   5.1780   5.2009   5.2257
     5.2306   5.3231   5.5088   5.5143   5.5445   5.5903   5.6433   5.6523
     5.7391   5.7410   5.7726   5.8019   5.8498   5.8725   5.8979   5.9041
     6.0973   6.1617   6.1930   6.2153   6.2456   6.2988   6.3083   6.7291
     6.7438   6.7525   6.7838   6.8170   6.8221   6.8292   6.8398   6.8763
     6.9317   6.9527   6.9833   7.0350   7.0686   7.0738   7.1168   7.3869
     7.4069   7.4650   7.5291   7.6074   7.7265   7.7521   7.7935   7.8198
     7.8388   7.8536   8.1145   8.1351   8.1819   8.3214   8.3329   8.3413
     8.3426   8.3671   8.3687   8.4646   8.4855   8.5214   8.5483   8.5830
     8.6079   8.6605   8.6718   8.7210   9.1248   9.1442   9.1481   9.2889
     9.3258   9.3286   9.3680   9.4098   9.4263   9.4344   9.4397   9.4694
     9.4774   9.5191   9.5720   9.5906   9.6356   9.6390   9.6707   9.6901
     9.7096   9.8587   9.8858   9.9316   9.9360   9.9681  10.0276  10.2670

     occupation numbers 
     1.0000   1.0000   1.0000   1.0000   1.0000   1.0000   1.0000   1.0000
     1.0000   1.0000   1.0000   1.0000   1.0000   1.0000   1.0000   1.0000
     1.0000   1.0000   1.0000   1.0000   1.0000   1.0000   1.0000   1.0000
     1.0000   1.0000   1.0000   1.0000   1.0000   1.0000   1.0000   1.0000
     1.0000   1.0000   1.0000   1.0000   1.0000   1.0000   1.0000   1.0000
     1.0000   1.0000   1.0000   1.0000   1.0000   1.0000   1.0000   1.0000
     1.0000   1.0000   1.0000   1.0000   1.0000   1.0000   1.0000   1.0000
     1.0000   1.0000   1.0000   1.0000   1.0000   1.0000   1.0000   1.0000
     1.0000   1.0000   1.0000   1.0000   1.0000   1.0000   1.0000   1.0000
     1.0000   1.0000   1.0000   1.0000   1.0000   1.0000   1.0000   1.0000
     1.0000   1.0000   1.0000   1.0000   1.0000   1.0000   1.0000   1.0000
     1.0000   1.0000   1.0000   1.0000   1.0000   1.0000   1.0000   1.0000
     1.0000   1.0000   1.0000   1.0000   1.0000   1.0000   1.0000   1.0000
     1.0000   1.0000   1.0000   1.0000   1.0000   1.0000   1.0000   1.0000
     1.0000   1.0000   1.0000   1.0000   1.0000   1.0000   1.0000   1.0000
     1.0000   1.0000   1.0000   1.0000   1.0000   1.0000   1.0000   1.0000
     1.0000   1.0000   1.0000   1.0000   1.0000   1.0000   1.0000   1.0000
     1.0000   1.0000   1.0000   1.0000   1.0000   1.0000   1.0000   1.0023
     1.0031   1.0070   1.0154   1.0337   1.0726   1.0790   1.0833   1.0804
     1.0747   1.0680   0.5650   0.5085   0.3863   0.1252   0.1116   0.1025
     0.1011   0.0780   0.0766   0.0238   0.0179   0.0106   0.0071   0.0040
     0.0027   0.0010   0.0008   0.0003   0.0000   0.0000   0.0000   0.0000
     0.0000   0.0000   0.0000   0.0000   0.0000   0.0000   0.0000   0.0000
     0.0000   0.0000   0.0000   0.0000   0.0000   0.0000   0.0000   0.0000
     0.0000   0.0000   0.0000   0.0000   0.0000   0.0000   0.0000   0.0000

          k = 0.3333-0.3333-0.3333 ( 88430 PWs)   bands (ev):

    -2.9561  -2.6345  -2.6132  -2.5466  -2.2831  -2.2605  -2.1502  -1.8457
    -1.2363  -1.2211  -1.1389  -0.9018  -0.8877  -0.8839  -0.8564  -0.7869
    -0.7232  -0.5158  -0.4758  -0.4433  -0.1733  -0.1358  -0.1339   0.1307
     0.1460   0.1504   0.1823   0.2815   0.2855   0.4687   0.4906   0.5039
     0.5565   0.5883   0.7580   0.8547   0.9131   1.0587   1.5025   1.5100
     1.5206   1.5743   1.6277   1.6461   1.8399   1.8607   1.8736   1.9117
     1.9947   2.0250   2.2418   2.5022   2.5434   2.5487   2.5613   2.6086
     2.6234   2.8352   2.8387   2.8473   2.8578   2.8805   2.9064   2.9463
     2.9956   3.0883   3.1723   3.2071   3.2530   3.2945   3.3857   3.4224
     4.1394   4.1466   4.1473   4.1558   4.1631   4.1669   4.2009   4.2325
     4.2455   4.2651   4.2887   4.3545   4.4338   4.4451   4.4487   4.4728
     4.4791   4.5125   4.5267   4.5445   4.5901   4.6202   4.7229   4.7485
     4.8247   4.9278   4.9488   5.1497   5.1587   5.1780   5.2009   5.2257
     5.2306   5.3231   5.5088   5.5143   5.5445   5.5903   5.6433   5.6523
     5.7391   5.7410   5.7726   5.8019   5.8498   5.8725   5.8979   5.9041
     6.0973   6.1617   6.1930   6.2153   6.2456   6.2988   6.3083   6.7291
     6.7438   6.7525   6.7838   6.8170   6.8221   6.8292   6.8398   6.8763
     6.9317   6.9527   6.9833   7.0350   7.0686   7.0738   7.1168   7.3869
     7.4069   7.4650   7.5291   7.6074   7.7265   7.7521   7.7935   7.8198
     7.8388   7.8536   8.1145   8.1351   8.1819   8.3214   8.3329   8.3413
     8.3426   8.3671   8.3687   8.4646   8.4855   8.5214   8.5483   8.5830
     8.6079   8.6605   8.6718   8.7210   9.1248   9.1442   9.1481   9.2889
     9.3258   9.3286   9.3680   9.4098   9.4263   9.4344   9.4397   9.4694
     9.4774   9.5191   9.5720   9.5906   9.6356   9.6390   9.6707   9.6901
     9.7096   9.8587   9.8858   9.9316   9.9360   9.9681  10.0276  10.2674

     occupation numbers 
     1.0000   1.0000   1.0000   1.0000   1.0000   1.0000   1.0000   1.0000
     1.0000   1.0000   1.0000   1.0000   1.0000   1.0000   1.0000   1.0000
     1.0000   1.0000   1.0000   1.0000   1.0000   1.0000   1.0000   1.0000
     1.0000   1.0000   1.0000   1.0000   1.0000   1.0000   1.0000   1.0000
     1.0000   1.0000   1.0000   1.0000   1.0000   1.0000   1.0000   1.0000
     1.0000   1.0000   1.0000   1.0000   1.0000   1.0000   1.0000   1.0000
     1.0000   1.0000   1.0000   1.0000   1.0000   1.0000   1.0000   1.0000
     1.0000   1.0000   1.0000   1.0000   1.0000   1.0000   1.0000   1.0000
     1.0000   1.0000   1.0000   1.0000   1.0000   1.0000   1.0000   1.0000
     1.0000   1.0000   1.0000   1.0000   1.0000   1.0000   1.0000   1.0000
     1.0000   1.0000   1.0000   1.0000   1.0000   1.0000   1.0000   1.0000
     1.0000   1.0000   1.0000   1.0000   1.0000   1.0000   1.0000   1.0000
     1.0000   1.0000   1.0000   1.0000   1.0000   1.0000   1.0000   1.0000
     1.0000   1.0000   1.0000   1.0000   1.0000   1.0000   1.0000   1.0000
     1.0000   1.0000   1.0000   1.0000   1.0000   1.0000   1.0000   1.0000
     1.0000   1.0000   1.0000   1.0000   1.0000   1.0000   1.0000   1.0000
     1.0000   1.0000   1.0000   1.0000   1.0000   1.0000   1.0000   1.0000
     1.0000   1.0000   1.0000   1.0000   1.0000   1.0000   1.0000   1.0023
     1.0031   1.0070   1.0154   1.0337   1.0726   1.0790   1.0833   1.0804
     1.0747   1.0680   0.5650   0.5085   0.3863   0.1252   0.1116   0.1025
     0.1011   0.0780   0.0766   0.0238   0.0179   0.0106   0.0071   0.0040
     0.0027   0.0010   0.0008   0.0003   0.0000   0.0000   0.0000   0.0000
     0.0000   0.0000   0.0000   0.0000   0.0000   0.0000   0.0000   0.0000
     0.0000   0.0000   0.0000   0.0000   0.0000   0.0000   0.0000   0.0000
     0.0000   0.0000   0.0000   0.0000   0.0000   0.0000   0.0000   0.0000

     the Fermi energy is     8.1761 ev

!    total energy              =    -444.04662686 Ry
     estimated scf accuracy    <          3.9E-10 Ry
     smearing contrib. (-TS)   =      -0.01195215 Ry
     internal energy E=F+TS    =    -444.03467471 Ry

     The total energy is F=E-TS. E is the sum of the following terms:
     one-electron contribution =     302.06742049 Ry
     hartree contribution      =       4.45191429 Ry
     xc contribution           =    -173.22854830 Ry
     ewald contribution        =    -577.32546119 Ry

     convergence has been achieved in  27 iterations

     Writing all to output data dir ./tmp/Al_LDA_strict108_E60_R240_K3_D020_F001_vertical_2V_1NN_D110.save/ :
     XML data file, charge density, pseudopotentials, collected wavefunctions

     init_run     :      1.75s CPU      1.49s WALL (       1 calls)
     electrons    :   2543.39s CPU   5500.40s WALL (       1 calls)

     Called by init_run:
     wfcinit      :      0.02s CPU      0.02s WALL (       1 calls)
     potinit      :      0.07s CPU      0.10s WALL (       1 calls)
     hinit0       :      1.36s CPU      1.02s WALL (       1 calls)

     Called by electrons:
     c_bands      :   2205.71s CPU   5311.11s WALL (       5 calls)
     sum_band     :    335.41s CPU    186.35s WALL (       5 calls)
     v_of_rho     :      0.69s CPU      0.59s WALL (       6 calls)
     v_h          :      0.24s CPU      0.26s WALL (       6 calls)
     v_xc         :      0.45s CPU      0.34s WALL (       6 calls)
     mix_rho      :      1.03s CPU      1.63s WALL (       5 calls)

     Called by c_bands:
     init_us_2    :     16.82s CPU     17.64s WALL (     133 calls)
     cegterg      :   2187.35s CPU   5278.04s WALL (      63 calls)

     Called by sum_band:
     sum_band:wei :      0.01s CPU      0.01s WALL (       5 calls)
     sum_band:loo :    334.70s CPU    185.72s WALL (       5 calls)
     sum_band:buf :      0.26s CPU     10.07s WALL (      70 calls)
     sum_band:ini :      8.61s CPU      9.21s WALL (      70 calls)

     Called by *egterg:
     cdiaghg      :      9.91s CPU      9.77s WALL (     277 calls)
     cegterg:over :    159.51s CPU    158.04s WALL (     214 calls)
     cegterg:upda :     93.35s CPU    109.02s WALL (     214 calls)
     cegterg:last :    180.66s CPU    178.56s WALL (     126 calls)
     h_psi        :   1667.66s CPU   4737.30s WALL (     277 calls)
     g_psi        :      4.96s CPU      4.88s WALL (     214 calls)

     Called by h_psi:
     h_psi:calbec :    166.07s CPU    165.68s WALL (     277 calls)
     vloc_psi     :   1335.62s CPU   4392.02s WALL (     277 calls)
                                        0.00s GPU  (     277 calls)
     add_vuspsi   :    160.25s CPU    160.57s WALL (     277 calls)

     General routines
     calbec       :    166.07s CPU    165.68s WALL (     277 calls)
     fft          :      1.29s CPU      0.95s WALL (      17 calls)
     ffts         :      0.06s CPU      0.04s WALL (       5 calls)
     fftw         :   1227.13s CPU   3999.28s WALL (   69966 calls)
     davcio       :      0.68s CPU     26.70s WALL (     265 calls)

     Parallel routines

     PWSCF        :  42m25.83s CPU      1h31m WALL


   This run was terminated on:  18:44: 5  20Sep2026            

=------------------------------------------------------------------------------=
   JOB DONE.
=------------------------------------------------------------------------------=
