
     Program PWSCF v.7.5 starts on 21Sep2026 at  1:24:10 

     This program is part of the open-source Quantum ESPRESSO suite
     for quantum simulation of materials; please cite
         "P. Giannozzi et al., J. Phys.:Condens. Matter 21 395502 (2009);
         "P. Giannozzi et al., J. Phys.:Condens. Matter 29 465901 (2017);
         "P. Giannozzi et al., J. Chem. Phys. 152 154105 (2020);
          URL http://www.quantum-espresso.org", 
     in publications or presentations arising from this work. More details at
     http://www.quantum-espresso.org/quote

     Parallel version (MPI & OpenMP), running on       2 processor cores
     Number of MPI processes:                 1
     Threads/MPI process:                     2

     MPI processes distributed on     1 nodes
     98 MiB available memory on the printing compute node when the environment starts

     Reading input from pw.in

     Current dimensions of program PWSCF are:
     Max number of different atomic species (ntypx) = 10
     Max number of k-points (npk) =  40000
     Max angular momentum in pseudopotentials (lmaxx) =  4

     Subspace diagonalization in iterative solution of the eigenvalue problem:
     a serial algorithm will be used


     G-vector sticks info
     --------------------
     sticks:   dense  smooth     PW     G-vecs:    dense   smooth      PW
     Sum        9609    9609   2501               707631   707631   93981

     Using Slab Decomposition



     bravais-lattice index     =            0
     lattice parameter (alat)  =      22.4192  a.u.
     unit-cell volume          =   11268.3829 (a.u.)^3
     number of atoms/cell      =          106
     number of atomic types    =            1
     number of electrons       =       318.00
     number of Kohn-Sham states=          200
     kinetic-energy cutoff     =      60.0000  Ry
     charge density cutoff     =     240.0000  Ry
     scf convergence threshold =      1.0E-09
     mixing beta               =       0.3000
     number of iterations used =            4  plain     mixing
     Exchange-correlation= SLA  PZ   NOGX NOGC
                           (   1   1   0   0   0   0   0)

     celldm(1)=  22.419222  celldm(2)=   0.000000  celldm(3)=   0.000000
     celldm(4)=   0.000000  celldm(5)=   0.000000  celldm(6)=   0.000000

     crystal axes: (cart. coord. in units of alat)
               a(1) = (   1.000000   0.000000   0.000000 )  
               a(2) = (   0.000000   1.000000   0.000000 )  
               a(3) = (   0.000000   0.000000   1.000000 )  

     reciprocal axes: (cart. coord. in units 2 pi/alat)
               b(1) = (  1.000000  0.000000  0.000000 )  
               b(2) = (  0.000000  1.000000  0.000000 )  
               b(3) = (  0.000000  0.000000  1.000000 )  


     PseudoPot. # 1 for Al read from file:
     /var/tmp/al-defects-runtime-20260907/runs/luder_qe_20260917/pseudo/Al.pz-vbc.UPF
     MD5 check sum: f06ceae8da0fe5c02c98e3688433298c
     Pseudo is Norm-conserving, Zval =  3.0
     Generated by new atomic code, or converted to UPF format
     Using radial grid of  171 points,  2 beta functions with: 
                l(1) =   0
                l(2) =   1

     atomic species   valence    mass     pseudopotential
     Al                3.00    26.98154     Al( 1.00)

     No symmetry found


                                    s                        frac. trans.

      isym =  1     identity                                     

 cryst.   s( 1) = (     1          0          0      )
                  (     0          1          0      )
                  (     0          0          1      )

 cart.    s( 1) = (  1.0000000  0.0000000  0.0000000 )
                  (  0.0000000  1.0000000  0.0000000 )
                  (  0.0000000  0.0000000  1.0000000 )


   Cartesian axes

     site n.     atom                  positions (alat units)
         1        Al     tau(   1) = (  -0.0002029  -0.0000000  -0.0003758  )
         2        Al     tau(   2) = (  -0.0002029   0.1670425   0.1666667  )
         3        Al     tau(   3) = (   0.1666667  -0.0000000   0.1666667  )
         4        Al     tau(   4) = (   0.1666667   0.1671128  -0.0004462  )
         5        Al     tau(   5) = (  -0.0002029  -0.0000000   0.3337092  )
         6        Al     tau(   6) = (  -0.0004686   0.1676156   0.5006819  )
         7        Al     tau(   7) = (   0.1666667  -0.0000000   0.5004138  )
         8        Al     tau(   8) = (   0.1666667   0.1671128   0.3337795  )
         9        Al     tau(   9) = (   0.0001472  -0.0000000   0.6666667  )
        10        Al     tau(  10) = (  -0.0004686   0.1676156   0.8326514  )
        11        Al     tau(  11) = (   0.1666667  -0.0000000   0.8329196  )
        12        Al     tau(  12) = (   0.1666667   0.1682906   0.6666667  )
        13        Al     tau(  13) = (  -0.0004686   0.3340153  -0.0009490  )
        14        Al     tau(  14) = (   0.0001472   0.5000000   0.1666667  )
        15        Al     tau(  15) = (   0.1666667   0.3337471   0.1666667  )
        16        Al     tau(  16) = (   0.1666667   0.5000000  -0.0016239  )
        17        Al     tau(  17) = (  -0.0004686   0.3340153   0.3342823  )
        18        Al     tau(  18) = (  -0.0028037   0.5000000   0.5027572  )
        19        Al     tau(  19) = (   0.1666667   0.3342374   0.5009041  )
        20        Al     tau(  20) = (   0.1666667   0.5000000   0.3349573  )
        21        Al     tau(  21) = (  -0.0028037   0.3360905   0.6666667  )
        22        Al     tau(  22) = (  -0.0028037   0.5000000   0.8305762  )
        23        Al     tau(  23) = (   0.1666667   0.3342374   0.8324292  )
        24        Al     tau(  24) = (   0.1666667   0.5000000   0.6666667  )
        25        Al     tau(  25) = (  -0.0004686   0.6659847  -0.0009490  )
        26        Al     tau(  26) = (  -0.0002029   0.8329575   0.1666667  )
        27        Al     tau(  27) = (   0.1666667   0.6662529   0.1666667  )
        28        Al     tau(  28) = (   0.1666667   0.8328872  -0.0004462  )
        29        Al     tau(  29) = (  -0.0004686   0.6659847   0.3342823  )
        30        Al     tau(  30) = (  -0.0004686   0.8323844   0.5006819  )
        31        Al     tau(  31) = (   0.1666667   0.6657626   0.5009041  )
        32        Al     tau(  32) = (   0.1666667   0.8328872   0.3337795  )
        33        Al     tau(  33) = (  -0.0028037   0.6639095   0.6666667  )
        34        Al     tau(  34) = (  -0.0004686   0.8323844   0.8326514  )
        35        Al     tau(  35) = (   0.1666667   0.6657626   0.8324292  )
        36        Al     tau(  36) = (   0.1666667   0.8317094   0.6666667  )
        37        Al     tau(  37) = (   0.3335362  -0.0000000  -0.0003758  )
        38        Al     tau(  38) = (   0.3335362   0.1670425   0.1666667  )
        39        Al     tau(  39) = (   0.5001206  -0.0000000   0.1666667  )
        40        Al     tau(  40) = (   0.5001920   0.1677272  -0.0010606  )
        41        Al     tau(  41) = (   0.3335362  -0.0000000   0.3337092  )
        42        Al     tau(  42) = (   0.3338019   0.1676156   0.5006819  )
        43        Al     tau(  43) = (   0.5001843  -0.0000000   0.5000970  )
        44        Al     tau(  44) = (   0.5001920   0.1677272   0.3343939  )
        45        Al     tau(  45) = (   0.3331861  -0.0000000   0.6666667  )
        46        Al     tau(  46) = (   0.3338019   0.1676156   0.8326514  )
        47        Al     tau(  47) = (   0.5001843  -0.0000000   0.8332363  )
        48        Al     tau(  48) = (   0.5007002   0.1667775   0.6666667  )
        49        Al     tau(  49) = (   0.3338019   0.3340153  -0.0009490  )
        50        Al     tau(  50) = (   0.3331861   0.5000000   0.1666667  )
        51        Al     tau(  51) = (   0.5001843   0.3334304   0.1666667  )
        52        Al     tau(  52) = (   0.5007002   0.5000000  -0.0001108  )
        53        Al     tau(  53) = (   0.3338019   0.3340153   0.3342823  )
        54        Al     tau(  54) = (   0.3361370   0.5000000   0.5027572  )
        55        Al     tau(  55) = (   0.5008305   0.3368410   0.5035077  )
        56        Al     tau(  56) = (   0.5007002   0.5000000   0.3334441  )
        57        Al     tau(  57) = (   0.3361370   0.3360905   0.6666667  )
        58        Al     tau(  58) = (   0.3361370   0.5000000   0.8305762  )
        59        Al     tau(  59) = (   0.5008305   0.3368410   0.8298256  )
        60        Al     tau(  60) = (   0.3338019   0.6659847  -0.0009490  )
        61        Al     tau(  61) = (   0.3335362   0.8329575   0.1666667  )
        62        Al     tau(  62) = (   0.5001843   0.6665696   0.1666667  )
        63        Al     tau(  63) = (   0.5001920   0.8322728  -0.0010606  )
        64        Al     tau(  64) = (   0.3338019   0.6659847   0.3342823  )
        65        Al     tau(  65) = (   0.3338019   0.8323844   0.5006819  )
        66        Al     tau(  66) = (   0.5008305   0.6631590   0.5035077  )
        67        Al     tau(  67) = (   0.5001920   0.8322728   0.3343939  )
        68        Al     tau(  68) = (   0.3361370   0.6639095   0.6666667  )
        69        Al     tau(  69) = (   0.3338019   0.8323844   0.8326514  )
        70        Al     tau(  70) = (   0.5008305   0.6631590   0.8298256  )
        71        Al     tau(  71) = (   0.5007002   0.8332225   0.6666667  )
        72        Al     tau(  72) = (   0.6666667  -0.0000000  -0.0003854  )
        73        Al     tau(  73) = (   0.6666667   0.1670521   0.1666667  )
        74        Al     tau(  74) = (   0.8332127  -0.0000000   0.1666667  )
        75        Al     tau(  75) = (   0.8331413   0.1677272  -0.0010606  )
        76        Al     tau(  76) = (   0.6666667  -0.0000000   0.3337187  )
        77        Al     tau(  77) = (   0.6666667   0.1679275   0.5008005  )
        78        Al     tau(  78) = (   0.8331491  -0.0000000   0.5000970  )
        79        Al     tau(  79) = (   0.8331413   0.1677272   0.3343939  )
        80        Al     tau(  80) = (   0.6666667  -0.0000000   0.6666667  )
        81        Al     tau(  81) = (   0.6666667   0.1679275   0.8325329  )
        82        Al     tau(  82) = (   0.8331491  -0.0000000   0.8332363  )
        83        Al     tau(  83) = (   0.8326332   0.1667775   0.6666667  )
        84        Al     tau(  84) = (   0.6666667   0.3341338  -0.0012608  )
        85        Al     tau(  85) = (   0.6666667   0.5000000   0.1666667  )
        86        Al     tau(  86) = (   0.8331491   0.3334304   0.1666667  )
        87        Al     tau(  87) = (   0.8326332   0.5000000  -0.0001108  )
        88        Al     tau(  88) = (   0.6666667   0.3341338   0.3345942  )
        89        Al     tau(  89) = (   0.6666667   0.5000000   0.5049133  )
        90        Al     tau(  90) = (   0.8325029   0.3368410   0.5035077  )
        91        Al     tau(  91) = (   0.8326332   0.5000000   0.3334441  )
        92        Al     tau(  92) = (   0.6666667   0.3382467   0.6666667  )
        93        Al     tau(  93) = (   0.6666667   0.5000000   0.8284200  )
        94        Al     tau(  94) = (   0.8325029   0.3368410   0.8298256  )
        95        Al     tau(  95) = (   0.6666667   0.6658662  -0.0012608  )
        96        Al     tau(  96) = (   0.6666667   0.8329479   0.1666667  )
        97        Al     tau(  97) = (   0.8331491   0.6665696   0.1666667  )
        98        Al     tau(  98) = (   0.8331413   0.8322728  -0.0010606  )
        99        Al     tau(  99) = (   0.6666667   0.6658662   0.3345942  )
       100        Al     tau( 100) = (   0.6666667   0.8320725   0.5008005  )
       101        Al     tau( 101) = (   0.8325029   0.6631590   0.5035077  )
       102        Al     tau( 102) = (   0.8331413   0.8322728   0.3343939  )
       103        Al     tau( 103) = (   0.6666667   0.6617533   0.6666667  )
       104        Al     tau( 104) = (   0.6666667   0.8320725   0.8325329  )
       105        Al     tau( 105) = (   0.8325029   0.6631590   0.8298256  )
       106        Al     tau( 106) = (   0.8326332   0.8332225   0.6666667  )

   Crystallographic axes

     site n.     atom                  positions (cryst. coord.)
         1        Al     tau(   1) = ( -0.0002029 -0.0000000 -0.0003758  )
         2        Al     tau(   2) = ( -0.0002029  0.1670425  0.1666667  )
         3        Al     tau(   3) = (  0.1666667 -0.0000000  0.1666667  )
         4        Al     tau(   4) = (  0.1666667  0.1671128 -0.0004462  )
         5        Al     tau(   5) = ( -0.0002029 -0.0000000  0.3337092  )
         6        Al     tau(   6) = ( -0.0004686  0.1676156  0.5006819  )
         7        Al     tau(   7) = (  0.1666667 -0.0000000  0.5004138  )
         8        Al     tau(   8) = (  0.1666667  0.1671128  0.3337795  )
         9        Al     tau(   9) = (  0.0001472 -0.0000000  0.6666667  )
        10        Al     tau(  10) = ( -0.0004686  0.1676156  0.8326514  )
        11        Al     tau(  11) = (  0.1666667 -0.0000000  0.8329196  )
        12        Al     tau(  12) = (  0.1666667  0.1682906  0.6666667  )
        13        Al     tau(  13) = ( -0.0004686  0.3340153 -0.0009490  )
        14        Al     tau(  14) = (  0.0001472  0.5000000  0.1666667  )
        15        Al     tau(  15) = (  0.1666667  0.3337471  0.1666667  )
        16        Al     tau(  16) = (  0.1666667  0.5000000 -0.0016239  )
        17        Al     tau(  17) = ( -0.0004686  0.3340153  0.3342823  )
        18        Al     tau(  18) = ( -0.0028037  0.5000000  0.5027572  )
        19        Al     tau(  19) = (  0.1666667  0.3342374  0.5009041  )
        20        Al     tau(  20) = (  0.1666667  0.5000000  0.3349573  )
        21        Al     tau(  21) = ( -0.0028037  0.3360905  0.6666667  )
        22        Al     tau(  22) = ( -0.0028037  0.5000000  0.8305762  )
        23        Al     tau(  23) = (  0.1666667  0.3342374  0.8324292  )
        24        Al     tau(  24) = (  0.1666667  0.5000000  0.6666667  )
        25        Al     tau(  25) = ( -0.0004686  0.6659847 -0.0009490  )
        26        Al     tau(  26) = ( -0.0002029  0.8329575  0.1666667  )
        27        Al     tau(  27) = (  0.1666667  0.6662529  0.1666667  )
        28        Al     tau(  28) = (  0.1666667  0.8328872 -0.0004462  )
        29        Al     tau(  29) = ( -0.0004686  0.6659847  0.3342823  )
        30        Al     tau(  30) = ( -0.0004686  0.8323844  0.5006819  )
        31        Al     tau(  31) = (  0.1666667  0.6657626  0.5009041  )
        32        Al     tau(  32) = (  0.1666667  0.8328872  0.3337795  )
        33        Al     tau(  33) = ( -0.0028037  0.6639095  0.6666667  )
        34        Al     tau(  34) = ( -0.0004686  0.8323844  0.8326514  )
        35        Al     tau(  35) = (  0.1666667  0.6657626  0.8324292  )
        36        Al     tau(  36) = (  0.1666667  0.8317094  0.6666667  )
        37        Al     tau(  37) = (  0.3335362 -0.0000000 -0.0003758  )
        38        Al     tau(  38) = (  0.3335362  0.1670425  0.1666667  )
        39        Al     tau(  39) = (  0.5001206 -0.0000000  0.1666667  )
        40        Al     tau(  40) = (  0.5001920  0.1677272 -0.0010606  )
        41        Al     tau(  41) = (  0.3335362 -0.0000000  0.3337092  )
        42        Al     tau(  42) = (  0.3338019  0.1676156  0.5006819  )
        43        Al     tau(  43) = (  0.5001843 -0.0000000  0.5000970  )
        44        Al     tau(  44) = (  0.5001920  0.1677272  0.3343939  )
        45        Al     tau(  45) = (  0.3331861 -0.0000000  0.6666667  )
        46        Al     tau(  46) = (  0.3338019  0.1676156  0.8326514  )
        47        Al     tau(  47) = (  0.5001843  0.0000000  0.8332363  )
        48        Al     tau(  48) = (  0.5007002  0.1667775  0.6666667  )
        49        Al     tau(  49) = (  0.3338019  0.3340153 -0.0009490  )
        50        Al     tau(  50) = (  0.3331861  0.5000000  0.1666667  )
        51        Al     tau(  51) = (  0.5001843  0.3334304  0.1666667  )
        52        Al     tau(  52) = (  0.5007002  0.5000000 -0.0001108  )
        53        Al     tau(  53) = (  0.3338019  0.3340153  0.3342823  )
        54        Al     tau(  54) = (  0.3361370  0.5000000  0.5027572  )
        55        Al     tau(  55) = (  0.5008305  0.3368410  0.5035077  )
        56        Al     tau(  56) = (  0.5007002  0.5000000  0.3334441  )
        57        Al     tau(  57) = (  0.3361370  0.3360905  0.6666667  )
        58        Al     tau(  58) = (  0.3361370  0.5000000  0.8305762  )
        59        Al     tau(  59) = (  0.5008305  0.3368410  0.8298256  )
        60        Al     tau(  60) = (  0.3338019  0.6659847 -0.0009490  )
        61        Al     tau(  61) = (  0.3335362  0.8329575  0.1666667  )
        62        Al     tau(  62) = (  0.5001843  0.6665696  0.1666667  )
        63        Al     tau(  63) = (  0.5001920  0.8322728 -0.0010606  )
        64        Al     tau(  64) = (  0.3338019  0.6659847  0.3342823  )
        65        Al     tau(  65) = (  0.3338019  0.8323844  0.5006819  )
        66        Al     tau(  66) = (  0.5008305  0.6631590  0.5035077  )
        67        Al     tau(  67) = (  0.5001920  0.8322728  0.3343939  )
        68        Al     tau(  68) = (  0.3361370  0.6639095  0.6666667  )
        69        Al     tau(  69) = (  0.3338019  0.8323844  0.8326514  )
        70        Al     tau(  70) = (  0.5008305  0.6631590  0.8298256  )
        71        Al     tau(  71) = (  0.5007002  0.8332225  0.6666667  )
        72        Al     tau(  72) = (  0.6666667 -0.0000000 -0.0003854  )
        73        Al     tau(  73) = (  0.6666667  0.1670521  0.1666667  )
        74        Al     tau(  74) = (  0.8332127 -0.0000000  0.1666667  )
        75        Al     tau(  75) = (  0.8331413  0.1677272 -0.0010606  )
        76        Al     tau(  76) = (  0.6666667 -0.0000000  0.3337187  )
        77        Al     tau(  77) = (  0.6666667  0.1679275  0.5008005  )
        78        Al     tau(  78) = (  0.8331491 -0.0000000  0.5000970  )
        79        Al     tau(  79) = (  0.8331413  0.1677272  0.3343939  )
        80        Al     tau(  80) = (  0.6666667 -0.0000000  0.6666667  )
        81        Al     tau(  81) = (  0.6666667  0.1679275  0.8325329  )
        82        Al     tau(  82) = (  0.8331491 -0.0000000  0.8332363  )
        83        Al     tau(  83) = (  0.8326332  0.1667775  0.6666667  )
        84        Al     tau(  84) = (  0.6666667  0.3341338 -0.0012608  )
        85        Al     tau(  85) = (  0.6666667  0.5000000  0.1666667  )
        86        Al     tau(  86) = (  0.8331491  0.3334304  0.1666667  )
        87        Al     tau(  87) = (  0.8326332  0.5000000 -0.0001108  )
        88        Al     tau(  88) = (  0.6666667  0.3341338  0.3345942  )
        89        Al     tau(  89) = (  0.6666667  0.5000000  0.5049133  )
        90        Al     tau(  90) = (  0.8325029  0.3368410  0.5035077  )
        91        Al     tau(  91) = (  0.8326332  0.5000000  0.3334441  )
        92        Al     tau(  92) = (  0.6666667  0.3382467  0.6666667  )
        93        Al     tau(  93) = (  0.6666667  0.5000000  0.8284200  )
        94        Al     tau(  94) = (  0.8325029  0.3368410  0.8298256  )
        95        Al     tau(  95) = (  0.6666667  0.6658662 -0.0012608  )
        96        Al     tau(  96) = (  0.6666667  0.8329479  0.1666667  )
        97        Al     tau(  97) = (  0.8331491  0.6665696  0.1666667  )
        98        Al     tau(  98) = (  0.8331413  0.8322728 -0.0010606  )
        99        Al     tau(  99) = (  0.6666667  0.6658662  0.3345942  )
       100        Al     tau( 100) = (  0.6666667  0.8320725  0.5008005  )
       101        Al     tau( 101) = (  0.8325029  0.6631590  0.5035077  )
       102        Al     tau( 102) = (  0.8331413  0.8322728  0.3343939  )
       103        Al     tau( 103) = (  0.6666667  0.6617533  0.6666667  )
       104        Al     tau( 104) = (  0.6666667  0.8320725  0.8325329  )
       105        Al     tau( 105) = (  0.8325029  0.6631590  0.8298256  )
       106        Al     tau( 106) = (  0.8326332  0.8332225  0.6666667  )

     number of k points=    14  Marzari-Vanderbilt smearing, width (Ry)=  0.0200
                       cart. coord. in units 2pi/alat
        k(    1) = (   0.0000000   0.0000000   0.0000000), wk =   0.0740741
        k(    2) = (   0.0000000   0.0000000   0.3333333), wk =   0.1481481
        k(    3) = (   0.0000000   0.3333333   0.0000000), wk =   0.1481481
        k(    4) = (   0.0000000   0.3333333   0.3333333), wk =   0.1481481
        k(    5) = (   0.0000000   0.3333333  -0.3333333), wk =   0.1481481
        k(    6) = (   0.3333333   0.0000000   0.0000000), wk =   0.1481481
        k(    7) = (   0.3333333   0.0000000   0.3333333), wk =   0.1481481
        k(    8) = (   0.3333333   0.0000000  -0.3333333), wk =   0.1481481
        k(    9) = (   0.3333333   0.3333333   0.0000000), wk =   0.1481481
        k(   10) = (   0.3333333   0.3333333   0.3333333), wk =   0.1481481
        k(   11) = (   0.3333333   0.3333333  -0.3333333), wk =   0.1481481
        k(   12) = (   0.3333333  -0.3333333   0.0000000), wk =   0.1481481
        k(   13) = (   0.3333333  -0.3333333   0.3333333), wk =   0.1481481
        k(   14) = (   0.3333333  -0.3333333  -0.3333333), wk =   0.1481481

                       cryst. coord.
        k(    1) = (   0.0000000   0.0000000   0.0000000), wk =   0.0740741
        k(    2) = (   0.0000000   0.0000000   0.3333333), wk =   0.1481481
        k(    3) = (   0.0000000   0.3333333   0.0000000), wk =   0.1481481
        k(    4) = (   0.0000000   0.3333333   0.3333333), wk =   0.1481481
        k(    5) = (   0.0000000   0.3333333  -0.3333333), wk =   0.1481481
        k(    6) = (   0.3333333   0.0000000   0.0000000), wk =   0.1481481
        k(    7) = (   0.3333333   0.0000000   0.3333333), wk =   0.1481481
        k(    8) = (   0.3333333   0.0000000  -0.3333333), wk =   0.1481481
        k(    9) = (   0.3333333   0.3333333   0.0000000), wk =   0.1481481
        k(   10) = (   0.3333333   0.3333333   0.3333333), wk =   0.1481481
        k(   11) = (   0.3333333   0.3333333  -0.3333333), wk =   0.1481481
        k(   12) = (   0.3333333  -0.3333333   0.0000000), wk =   0.1481481
        k(   13) = (   0.3333333  -0.3333333   0.3333333), wk =   0.1481481
        k(   14) = (   0.3333333  -0.3333333  -0.3333333), wk =   0.1481481

     Dense  grid:   707631 G-vectors     FFT dimensions: ( 120, 120, 120)

     Dynamical RAM for                 wfc:     269.89 MB

     Dynamical RAM for     wfc (w. buffer):     269.89 MB

     Dynamical RAM for           str. fact:      10.80 MB

     Dynamical RAM for           local pot:       0.00 MB

     Dynamical RAM for          nlocal pot:     572.17 MB

     Dynamical RAM for                qrad:       0.11 MB

     Dynamical RAM for          rho,v,vnew:      71.94 MB

     Dynamical RAM for               rhoin:      23.98 MB

     Dynamical RAM for            rho*nmix:      86.38 MB

     Dynamical RAM for           G-vectors:      45.89 MB

     Dynamical RAM for          h,s,v(r/c):       7.32 MB

     Dynamical RAM for          <psi|beta>:       1.29 MB

     Dynamical RAM for                 psi:     539.78 MB

     Dynamical RAM for                hpsi:     539.78 MB

     Dynamical RAM for      wfcinit/wfcrot:     540.70 MB

     Estimated static dynamical RAM per process >       1.06 GB

     Estimated max dynamical RAM per process >       2.20 GB

     Atomic positions and unit cell read from directory:
     ./tmp/Al_LDA_strict108_E60_R240_K3_D020_F001_vertical_2V_2NN_D100.save/


     The initial density is read from file :
     ./tmp/Al_LDA_strict108_E60_R240_K3_D020_F001_vertical_2V_2NN_D100.save/charge-density

     Starting wfcs from file
     Calculation restarted from scf iteration #     3

     total cpu time spent up to now is        2.0 secs

     per-process dynamical memory:  1103.6 Mb

     Self-consistent Calculation

     iteration #  3     ecut=    60.00 Ry     beta= 0.30
     Calculation restarted from kpoint #     8
     Davidson diagonalization with overlap

---- Real-time Memory Report at c_bands before calling an iterative solver
           502 MiB given to the printing process from OS
          1099 MiB allocation reported by mallinfo(arena+hblkhd)
           110 MiB available memory on the node where the printing process lives
------------------
     ethr =  2.70E-04,  avg # of iterations =  4.0

     total cpu time spent up to now is      416.3 secs

     total energy              =    -443.98690391 Ry
     estimated scf accuracy    <       0.58660438 Ry

     iteration #  4     ecut=    60.00 Ry     beta= 0.30
     Davidson diagonalization with overlap

---- Real-time Memory Report at c_bands before calling an iterative solver
          2188 MiB given to the printing process from OS
          1099 MiB allocation reported by mallinfo(arena+hblkhd)
           452 MiB available memory on the node where the printing process lives
------------------
